Li12 Co24 O48
1.0
5.560000 0.000000 0.000000
-2.780000 4.815101 0.000000
0.000000 0.000000 25.950001
Li Co O
   3  24  48
direct
0.000000 0.000000 0.000000 Li
0.666667 0.333333 0.333333 Li
0.333333 0.666667 0.666667 Li
0.000000 0.000000 0.420000 Co
0.000000 0.000000 0.580000 Co
0.666667 0.333333 0.753333 Co
0.666667 0.333333 0.913333 Co
0.333333 0.666667 0.086667 Co
0.333333 0.666667 0.246667 Co
0.166670 0.333330 0.753330 Co
0.666670 0.833340 0.753330 Co
0.166660 0.833330 0.753330 Co
0.833330 0.666670 0.246670 Co
0.333330 0.166660 0.246670 Co
0.833340 0.166670 0.246670 Co
0.833337 0.666663 0.086663 Co
0.333337 0.166673 0.086663 Co
0.833327 0.166663 0.086663 Co
0.499997 0.000003 0.580003 Co
0.999997 0.499993 0.580003 Co
0.500007 0.500003 0.580003 Co
0.500003 0.999997 0.419997 Co
0.000003 0.500007 0.419997 Co
0.499993 0.499997 0.419997 Co
0.166663 0.333337 0.913337 Co
0.666663 0.833327 0.913337 Co
0.166673 0.833337 0.913337 Co
0.000000 0.000000 0.290000 O
0.000000 0.000000 0.710000 O
0.666667 0.333333 0.623333 O
0.666667 0.333333 0.043333 O
0.333333 0.666667 0.956667 O
0.333333 0.666667 0.376667 O
0.166670 0.333330 0.623330 O
0.666670 0.833340 0.623330 O
0.166660 0.833330 0.623330 O
0.833330 0.666670 0.376670 O
0.333330 0.166660 0.376670 O
0.833340 0.166670 0.376670 O
0.833337 0.666663 0.956663 O
0.333337 0.166673 0.956663 O
0.833327 0.166663 0.956663 O
0.499997 0.000003 0.710003 O
0.999997 0.499993 0.710003 O
0.500007 0.500003 0.710003 O
0.500003 0.999997 0.289997 O
0.000003 0.500007 0.289997 O
0.499993 0.499997 0.289997 O
0.166663 0.333337 0.043337 O
0.666663 0.833327 0.043337 O
0.166673 0.833337 0.043337 O
0.000000 0.000000 0.120000 O
0.000000 0.000000 0.880000 O
0.666667 0.333333 0.453333 O
0.666667 0.333333 0.213333 O
0.333333 0.666667 0.786667 O
0.333333 0.666667 0.546667 O
0.166670 0.333330 0.453330 O
0.666670 0.833340 0.453330 O
0.166660 0.833330 0.453330 O
0.833330 0.666670 0.546670 O
0.333330 0.166660 0.546670 O
0.833340 0.166670 0.546670 O
0.833337 0.666663 0.786663 O
0.333337 0.166673 0.786663 O
0.833327 0.166663 0.786663 O
0.499997 0.000003 0.880003 O
0.999997 0.499993 0.880003 O
0.500007 0.500003 0.880003 O
0.500003 0.999997 0.119997 O
0.000003 0.500007 0.119997 O
0.499993 0.499997 0.119997 O
0.166663 0.333337 0.213337 O
0.666663 0.833327 0.213337 O
0.166673 0.833337 0.213337 O
