Li8 Co8 O16
1.0
1.949534 0.000000 -9.307457
0.000000 2.815600 0.000000
0.000000 0.000000 46.875530
Li Co O
   4  8  16
direct
0.000000 0.000000 0.000000 Li
0.500000 0.500000 0.000000 Li
0.500000 0.000000 0.500000 Li
0.000000 0.500000 0.500000 Li
0.875000 0.000000 0.125000 Co
0.125000 0.000000 0.875000 Co
0.375000 0.500000 0.125000 Co
0.625000 0.500000 0.875000 Co
0.625000 0.000000 0.375000 Co
0.375000 0.000000 0.625000 Co
0.125000 0.500000 0.375000 Co
0.875000 0.500000 0.625000 Co
0.940080 0.000000 0.059920 O
0.059920 0.000000 0.940080 O
0.440080 0.500000 0.059920 O
0.559920 0.500000 0.940080 O
0.690080 0.500000 0.809920 O
0.309920 0.500000 0.190080 O
0.190080 0.000000 0.809920 O
0.809920 0.000000 0.190080 O
0.690080 0.000000 0.309920 O
0.309920 0.000000 0.690080 O
0.190080 0.500000 0.309920 O
0.809920 0.500000 0.690080 O
0.059920 0.500000 0.440080 O
0.940080 0.500000 0.559920 O
0.559920 0.000000 0.440080 O
0.440080 0.000000 0.559920 O
