Li12 Co24 O48
1.0
2.780000 0.000000 0.000000
-1.390000 2.407551 0.000000
0.000000 0.000000 103.800003
Li Co O
   9  24  48
direct
0.000000 0.000000 0.625000 Li
0.666667 0.333333 0.958333 Li
0.333333 0.666667 0.291667 Li
0.666670 0.333330 0.708330 Li
0.333337 0.666663 0.041663 Li
0.000003 0.999997 0.374997 Li
0.333330 0.666670 0.791670 Li
0.999997 0.000003 0.125003 Li
0.666663 0.333337 0.458337 Li
0.000000 0.000000 0.730000 Co
0.666667 0.333333 0.063333 Co
0.333333 0.666667 0.396667 Co
0.000000 0.000000 0.520000 Co
0.666667 0.333333 0.853333 Co
0.333333 0.666667 0.186667 Co
0.666670 0.333330 0.813330 Co
0.333337 0.666663 0.146663 Co
0.000003 0.999997 0.479997 Co
0.666670 0.333330 0.603330 Co
0.333337 0.666663 0.936663 Co
0.000003 0.999997 0.269997 Co
0.333330 0.666670 0.896670 Co
0.999997 0.000003 0.230003 Co
0.666663 0.333337 0.563337 Co
0.333330 0.666670 0.686670 Co
0.999997 0.000003 0.020003 Co
0.666663 0.333337 0.353337 Co
0.000000 0.000000 0.980000 Co
0.666667 0.333333 0.313333 Co
0.333333 0.666667 0.646667 Co
0.000000 0.000000 0.770000 Co
0.666667 0.333333 0.103333 Co
0.333333 0.666667 0.436667 Co
0.000000 0.000000 0.697500 O
0.666667 0.333333 0.030833 O
0.333333 0.666667 0.364167 O
0.000000 0.000000 0.552500 O
0.666667 0.333333 0.885833 O
0.333333 0.666667 0.219167 O
0.666670 0.333330 0.780830 O
0.333337 0.666663 0.114163 O
0.000003 0.999997 0.447497 O
0.666670 0.333330 0.635830 O
0.333337 0.666663 0.969163 O
0.000003 0.999997 0.302497 O
0.333330 0.666670 0.864170 O
0.999997 0.000003 0.197503 O
0.666663 0.333337 0.530837 O
0.333330 0.666670 0.719170 O
0.999997 0.000003 0.052503 O
0.666663 0.333337 0.385837 O
0.000000 0.000000 0.947500 O
0.666667 0.333333 0.280833 O
0.333333 0.666667 0.614167 O
0.000000 0.000000 0.802500 O
0.666667 0.333333 0.135833 O
0.333333 0.666667 0.469167 O
0.000000 0.000000 0.655000 O
0.666667 0.333333 0.988333 O
0.333333 0.666667 0.321667 O
0.000000 0.000000 0.595000 O
0.666667 0.333333 0.928333 O
0.333333 0.666667 0.261667 O
0.666670 0.333330 0.738330 O
0.333337 0.666663 0.071663 O
0.000003 0.999997 0.404997 O
0.666670 0.333330 0.678330 O
0.333337 0.666663 0.011663 O
0.000003 0.999997 0.344997 O
0.333330 0.666670 0.821670 O
0.999997 0.000003 0.155003 O
0.666663 0.333337 0.488337 O
0.333330 0.666670 0.761670 O
0.999997 0.000003 0.095003 O
0.666663 0.333337 0.428337 O
0.000000 0.000000 0.905000 O
0.666667 0.333333 0.238333 O
0.333333 0.666667 0.571667 O
0.000000 0.000000 0.845000 O
0.666667 0.333333 0.178333 O
0.333333 0.666667 0.511667 O
