Li24 Co24 O48
1.0
2.815600 0.000000 0.000000
-1.407800 2.438381 0.000000
0.000000 0.000000 112.433601
Li Co O
   12  24  48
direct
0.666670 0.333330 0.895830 Li
0.333330 0.666670 0.104170 Li
0.333337 0.666663 0.229163 Li
0.999997 0.000003 0.437503 Li
0.000003 0.999997 0.562497 Li
0.666663 0.333337 0.770837 Li
0.000000 0.000000 0.312500 Li
0.000000 0.000000 0.687500 Li
0.666667 0.333333 0.645833 Li
0.666667 0.333333 0.020833 Li
0.333333 0.666667 0.979167 Li
0.333333 0.666667 0.354167 Li
0.000000 0.000000 0.875000 Co
0.000000 0.000000 0.125000 Co
0.666667 0.333333 0.208333 Co
0.666667 0.333333 0.458333 Co
0.333333 0.666667 0.541667 Co
0.333333 0.666667 0.791667 Co
0.000000 0.000000 0.750000 Co
0.000000 0.000000 0.250000 Co
0.666667 0.333333 0.083333 Co
0.666667 0.333333 0.583333 Co
0.333333 0.666667 0.416667 Co
0.333333 0.666667 0.916667 Co
0.666670 0.333330 0.958330 Co
0.333330 0.666670 0.041670 Co
0.333337 0.666663 0.291663 Co
0.999997 0.000003 0.375003 Co
0.000003 0.999997 0.624997 Co
0.666663 0.333337 0.708337 Co
0.666670 0.333330 0.833330 Co
0.333330 0.666670 0.166670 Co
0.999997 0.000003 0.500003 Co
0.000000 0.000000 0.000000 Co
0.666667 0.333333 0.333333 Co
0.333333 0.666667 0.666667 Co
0.000000 0.000000 0.842460 O
0.000000 0.000000 0.157540 O
0.666667 0.333333 0.175793 O
0.666667 0.333333 0.490873 O
0.333333 0.666667 0.509127 O
0.333333 0.666667 0.824207 O
0.000000 0.000000 0.782540 O
0.000000 0.000000 0.217460 O
0.666667 0.333333 0.115873 O
0.666667 0.333333 0.550793 O
0.333333 0.666667 0.449207 O
0.333333 0.666667 0.884127 O
0.666670 0.333330 0.925790 O
0.333330 0.666670 0.074210 O
0.333337 0.666663 0.259123 O
0.999997 0.000003 0.407543 O
0.000003 0.999997 0.592457 O
0.666663 0.333337 0.740877 O
0.666670 0.333330 0.865870 O
0.333330 0.666670 0.134130 O
0.333337 0.666663 0.199203 O
0.999997 0.000003 0.467463 O
0.000003 0.999997 0.532537 O
0.666663 0.333337 0.800797 O
0.000000 0.000000 0.967460 O
0.000000 0.000000 0.032540 O
0.666667 0.333333 0.300793 O
0.666667 0.333333 0.365873 O
0.333333 0.666667 0.634127 O
0.333333 0.666667 0.699207 O
0.000000 0.000000 0.092460 O
0.000000 0.000000 0.907540 O
0.666667 0.333333 0.425793 O
0.666667 0.333333 0.240873 O
0.333333 0.666667 0.759127 O
0.333333 0.666667 0.574207 O
0.000000 0.000000 0.342460 O
0.000000 0.000000 0.657540 O
0.666667 0.333333 0.675793 O
0.666667 0.333333 0.990873 O
0.333333 0.666667 0.009127 O
0.333333 0.666667 0.324207 O
0.000000 0.000000 0.717460 O
0.000000 0.000000 0.282540 O
0.666667 0.333333 0.050793 O
0.666667 0.333333 0.615873 O
0.333333 0.666667 0.384127 O
0.333333 0.666667 0.949207 O
