Li18 C108
1.0
12.898500 0.000000 0.000000
-6.449250 11.170429 0.000000
0.000000 0.000000 7.200000
Li C
   4  108
direct
0.777780 0.555550 0.763880 Li
0.444450 0.222230 0.763880 Li
0.777770 0.222220 0.763880 Li
0.333333 0.666667 0.236120 Li
0.888890 0.555560 0.000000 C
0.444440 0.333330 0.000000 C
0.666670 0.111110 0.000000 C
0.777770 0.333333 0.000000 C
0.666667 0.444437 0.000000 C
0.555563 0.222230 0.000000 C
0.000000 0.444440 0.000000 C
0.555560 0.555560 0.000000 C
0.444440 0.000000 0.000000 C
0.222220 0.888890 0.000000 C
0.111110 0.333330 0.000000 C
0.666670 0.777780 0.000000 C
0.222220 0.555560 0.000000 C
0.444440 0.666660 0.000000 C
0.333340 0.777780 0.000000 C
0.111110 0.666667 0.000000 C
0.333333 0.444443 0.000000 C
0.555557 0.888890 0.000000 C
0.888890 0.888890 0.000000 C
0.111110 0.000000 0.000000 C
0.000000 0.111110 0.000000 C
0.222220 0.222220 0.000000 C
0.777780 0.000000 0.000000 C
0.000000 0.777780 0.000000 C
0.888890 0.222220 0.000000 C
0.777780 0.666670 0.000000 C
0.333330 0.111110 0.000000 C
0.000000 0.666667 0.000000 C
0.333333 0.333333 0.000000 C
0.666667 0.000000 0.000000 C
0.666667 0.333333 0.000000 C
0.000000 0.333333 0.000000 C
0.666667 0.666667 0.000000 C
0.333333 0.000000 0.000000 C
0.777780 0.555560 0.000000 C
0.444440 0.222220 0.000000 C
0.777780 0.222220 0.000000 C
0.111110 0.555560 0.000000 C
0.444440 0.555550 0.000000 C
0.444450 0.888890 0.000000 C
0.333333 0.666667 0.000000 C
0.111110 0.888890 0.000000 C
0.111110 0.222220 0.000000 C
0.777780 0.888890 0.000000 C
0.000000 0.000000 0.000000 C
0.666667 0.444440 0.500000 C
0.555560 0.222227 0.500000 C
0.777773 0.333333 0.500000 C
0.888890 0.222220 0.500000 C
0.777780 0.666670 0.500000 C
0.333330 0.111110 0.500000 C
0.111110 0.666667 0.500000 C
0.333333 0.444443 0.500000 C
0.555557 0.888890 0.500000 C
0.000000 0.777780 0.500000 C
0.222220 0.222220 0.500000 C
0.777780 0.000000 0.500000 C
0.000000 0.444440 0.500000 C
0.555560 0.555560 0.500000 C
0.444440 0.000000 0.500000 C
0.222220 0.555560 0.500000 C
0.444440 0.666660 0.500000 C
0.333340 0.777780 0.500000 C
0.666667 0.777780 0.500000 C
0.222220 0.888887 0.500000 C
0.111113 0.333333 0.500000 C
0.000000 0.111110 0.500000 C
0.888890 0.888890 0.500000 C
0.111110 0.000000 0.500000 C
0.666667 0.111110 0.500000 C
0.888890 0.555557 0.500000 C
0.444443 0.333333 0.500000 C
0.888890 0.666667 0.500000 C
0.333333 0.222223 0.500000 C
0.777777 0.111110 0.500000 C
0.666667 0.222230 0.500000 C
0.777770 0.444437 0.500000 C
0.555563 0.333333 0.500000 C
0.111100 0.444440 0.500000 C
0.555560 0.666660 0.500000 C
0.333340 0.888900 0.500000 C
0.222220 0.000000 0.500000 C
0.000000 0.222220 0.500000 C
0.777780 0.777780 0.500000 C
0.222220 0.666667 0.500000 C
0.333333 0.555553 0.500000 C
0.444447 0.777780 0.500000 C
0.000000 0.555560 0.500000 C
0.444440 0.444440 0.500000 C
0.555560 0.000000 0.500000 C
0.888890 0.000000 0.500000 C
0.000000 0.888890 0.500000 C
0.111110 0.111110 0.500000 C
0.222220 0.333333 0.500000 C
0.666667 0.888887 0.500000 C
0.111113 0.777780 0.500000 C
0.888890 0.333333 0.500000 C
0.666667 0.555557 0.500000 C
0.444443 0.111110 0.500000 C
0.888890 0.444440 0.000000 C
0.555560 0.444450 0.000000 C
0.555550 0.111110 0.000000 C
0.222220 0.777780 0.000000 C
0.222220 0.444440 0.000000 C
0.555560 0.777780 0.000000 C
0.888890 0.777780 0.000000 C
0.222220 0.111110 0.000000 C
0.888890 0.111110 0.000000 C
