Li9 C54
1.0
4.323294 0.000000 0.000000
-2.161647 3.744082 0.000000
0.000000 0.000000 33.708309
Li C
   2  54
direct
0.000000 0.000000 0.444440 Li
0.000000 0.000000 0.555560 Li
0.000000 0.333550 0.833330 C
0.666450 0.666450 0.833330 C
0.333550 0.000000 0.833330 C
0.000000 0.666450 0.833330 C
0.333550 0.333550 0.833330 C
0.666450 0.000000 0.833330 C
0.333550 0.000000 0.166670 C
0.666450 0.666450 0.166670 C
0.000000 0.333550 0.166670 C
0.666450 0.000000 0.166670 C
0.333550 0.333550 0.166670 C
0.000000 0.666450 0.166670 C
0.333550 0.000000 0.722220 C
0.000000 0.333550 0.722220 C
0.666450 0.666450 0.722220 C
0.666450 0.000000 0.722220 C
0.000000 0.666450 0.722220 C
0.333550 0.333550 0.722220 C
0.000000 0.333550 0.277780 C
0.333550 0.000000 0.277780 C
0.666450 0.666450 0.277780 C
0.000000 0.666450 0.277780 C
0.666450 0.000000 0.277780 C
0.333550 0.333550 0.277780 C
0.000000 0.333550 0.944440 C
0.666450 0.666450 0.944440 C
0.333550 0.000000 0.944440 C
0.000000 0.666450 0.944440 C
0.333550 0.333550 0.944440 C
0.666450 0.000000 0.944440 C
0.333550 0.000000 0.055560 C
0.666450 0.666450 0.055560 C
0.000000 0.333550 0.055560 C
0.666450 0.000000 0.055560 C
0.333550 0.333550 0.055560 C
0.000000 0.666450 0.055560 C
0.000000 0.333550 0.388890 C
0.666450 0.666450 0.388890 C
0.333550 0.000000 0.388890 C
0.000000 0.666450 0.388890 C
0.333550 0.333550 0.388890 C
0.666450 0.000000 0.388890 C
0.333550 0.000000 0.611110 C
0.666450 0.666450 0.611110 C
0.000000 0.333550 0.611110 C
0.666450 0.000000 0.611110 C
0.333550 0.333550 0.611110 C
0.000000 0.666450 0.611110 C
0.000000 0.333550 0.500000 C
0.666450 0.666450 0.500000 C
0.333550 0.000000 0.500000 C
0.000000 0.666450 0.500000 C
0.333550 0.333550 0.500000 C
0.666450 0.000000 0.500000 C
