Li21 Co42 O84
1.0
7.355188 0.000000 0.000000
-3.677595 6.369779 0.000000
0.000000 0.000000 25.950001
Li Co O
   3  42  84
direct
0.000000 0.000000 0.000000 Li
0.666667 0.333333 0.333333 Li
0.333333 0.666667 0.666667 Li
0.142860 0.714290 0.420000 Co
0.285710 0.428570 0.420000 Co
0.571430 0.857140 0.420000 Co
0.809527 0.047623 0.753333 Co
0.952377 0.761903 0.753333 Co
0.238097 0.190473 0.753333 Co
0.476193 0.380957 0.086667 Co
0.619043 0.095237 0.086667 Co
0.904763 0.523807 0.086667 Co
0.571430 0.857140 0.580000 Co
0.142860 0.714290 0.580000 Co
0.285710 0.428570 0.580000 Co
0.238097 0.190473 0.913333 Co
0.809527 0.047623 0.913333 Co
0.952377 0.761903 0.913333 Co
0.904763 0.523807 0.246667 Co
0.476193 0.380957 0.246667 Co
0.619043 0.095237 0.246667 Co
0.857140 0.285710 0.580000 Co
0.714290 0.571430 0.580000 Co
0.428570 0.142860 0.580000 Co
0.523807 0.619043 0.913333 Co
0.380957 0.904763 0.913333 Co
0.095237 0.476193 0.913333 Co
0.190473 0.952377 0.246667 Co
0.047623 0.238097 0.246667 Co
0.761903 0.809527 0.246667 Co
0.000000 0.000000 0.580000 Co
0.666667 0.333333 0.913333 Co
0.333333 0.666667 0.246667 Co
0.714290 0.571430 0.420000 Co
0.428570 0.142860 0.420000 Co
0.857140 0.285710 0.420000 Co
0.380957 0.904763 0.753333 Co
0.095237 0.476193 0.753333 Co
0.523807 0.619043 0.753333 Co
0.047623 0.238097 0.086667 Co
0.761903 0.809527 0.086667 Co
0.190473 0.952377 0.086667 Co
0.666670 0.333330 0.753330 Co
0.333337 0.666663 0.086663 Co
0.000003 0.999997 0.419997 Co
0.142860 0.714290 0.290000 O
0.285710 0.428570 0.290000 O
0.571430 0.857140 0.290000 O
0.809527 0.047623 0.623333 O
0.952377 0.761903 0.623333 O
0.238097 0.190473 0.623333 O
0.476193 0.380957 0.956667 O
0.619043 0.095237 0.956667 O
0.904763 0.523807 0.956667 O
0.571430 0.857140 0.710000 O
0.142860 0.714290 0.710000 O
0.285710 0.428570 0.710000 O
0.238097 0.190473 0.043333 O
0.809527 0.047623 0.043333 O
0.952377 0.761903 0.043333 O
0.904763 0.523807 0.376667 O
0.476193 0.380957 0.376667 O
0.619043 0.095237 0.376667 O
0.857140 0.285710 0.710000 O
0.714290 0.571430 0.710000 O
0.428570 0.142860 0.710000 O
0.523807 0.619043 0.043333 O
0.380957 0.904763 0.043333 O
0.095237 0.476193 0.043333 O
0.190473 0.952377 0.376667 O
0.047623 0.238097 0.376667 O
0.761903 0.809527 0.376667 O
0.000000 0.000000 0.710000 O
0.666667 0.333333 0.043333 O
0.333333 0.666667 0.376667 O
0.714290 0.571430 0.290000 O
0.428570 0.142860 0.290000 O
0.857140 0.285710 0.290000 O
0.380957 0.904763 0.623333 O
0.095237 0.476193 0.623333 O
0.523807 0.619043 0.623333 O
0.047623 0.238097 0.956667 O
0.761903 0.809527 0.956667 O
0.190473 0.952377 0.956667 O
0.666670 0.333330 0.623330 O
0.333337 0.666663 0.956663 O
0.000003 0.999997 0.289997 O
0.142860 0.714290 0.120000 O
0.285710 0.428570 0.120000 O
0.571430 0.857140 0.120000 O
0.809527 0.047623 0.453333 O
0.952377 0.761903 0.453333 O
0.238097 0.190473 0.453333 O
0.476193 0.380957 0.786667 O
0.619043 0.095237 0.786667 O
0.904763 0.523807 0.786667 O
0.571430 0.857140 0.880000 O
0.142860 0.714290 0.880000 O
0.285710 0.428570 0.880000 O
0.238097 0.190473 0.213333 O
0.809527 0.047623 0.213333 O
0.952377 0.761903 0.213333 O
0.904763 0.523807 0.546667 O
0.476193 0.380957 0.546667 O
0.619043 0.095237 0.546667 O
0.857140 0.285710 0.880000 O
0.714290 0.571430 0.880000 O
0.428570 0.142860 0.880000 O
0.523807 0.619043 0.213333 O
0.380957 0.904763 0.213333 O
0.095237 0.476193 0.213333 O
0.190473 0.952377 0.546667 O
0.047623 0.238097 0.546667 O
0.761903 0.809527 0.546667 O
0.000000 0.000000 0.880000 O
0.666667 0.333333 0.213333 O
0.333333 0.666667 0.546667 O
0.714290 0.571430 0.120000 O
0.428570 0.142860 0.120000 O
0.857140 0.285710 0.120000 O
0.380957 0.904763 0.453333 O
0.095237 0.476193 0.453333 O
0.523807 0.619043 0.453333 O
0.047623 0.238097 0.786667 O
0.761903 0.809527 0.786667 O
0.190473 0.952377 0.786667 O
0.666670 0.333330 0.453330 O
0.333337 0.666663 0.786663 O
0.000003 0.999997 0.119997 O
