Li24 Co48 O96
1.0
5.560000 0.000000 0.000000
-2.780000 4.815101 0.000000
0.000000 0.000000 51.900002
Li Co O
   9  48  96
direct
0.833330 0.166670 0.166670 Li
0.833330 0.666660 0.166670 Li
0.333340 0.166670 0.166670 Li
0.166670 0.833330 0.833330 Li
0.666660 0.833330 0.833330 Li
0.166670 0.333340 0.833330 Li
0.499997 0.500003 0.500003 Li
0.499997 0.999993 0.500003 Li
0.000007 0.500003 0.500003 Li
0.000000 0.000000 0.210000 Co
0.000000 0.000000 0.790000 Co
0.666667 0.333333 0.543333 Co
0.666667 0.333333 0.123333 Co
0.333333 0.666667 0.876667 Co
0.333333 0.666667 0.456667 Co
0.833330 0.166670 0.376670 Co
0.833330 0.666660 0.376670 Co
0.333340 0.166670 0.376670 Co
0.166670 0.833330 0.623330 Co
0.666660 0.833330 0.623330 Co
0.166670 0.333340 0.623330 Co
0.499997 0.500003 0.710003 Co
0.499997 0.999993 0.710003 Co
0.000007 0.500003 0.710003 Co
0.833337 0.166663 0.956663 Co
0.333327 0.166663 0.956663 Co
0.833337 0.666673 0.956663 Co
0.166663 0.833337 0.043337 Co
0.166663 0.333327 0.043337 Co
0.666673 0.833337 0.043337 Co
0.500003 0.499997 0.289997 Co
0.999993 0.499997 0.289997 Co
0.500003 0.000007 0.289997 Co
0.666670 0.833330 0.543330 Co
0.166670 0.833340 0.543330 Co
0.166660 0.333330 0.543330 Co
0.833330 0.666670 0.456670 Co
0.833340 0.166670 0.456670 Co
0.333330 0.166660 0.456670 Co
0.333337 0.166663 0.876663 Co
0.833337 0.166673 0.876663 Co
0.833327 0.666663 0.876663 Co
0.499997 0.000003 0.790003 Co
0.500007 0.500003 0.790003 Co
0.999997 0.499993 0.790003 Co
0.000003 0.499997 0.209997 Co
0.500003 0.500007 0.209997 Co
0.499993 0.999997 0.209997 Co
0.166663 0.333337 0.123337 Co
0.166673 0.833337 0.123337 Co
0.666663 0.833327 0.123337 Co
0.000000 0.000000 0.710000 Co
0.000000 0.000000 0.290000 Co
0.666667 0.333333 0.043333 Co
0.666667 0.333333 0.623333 Co
0.333333 0.666667 0.376667 Co
0.333333 0.666667 0.956667 Co
0.000000 0.000000 0.145000 O
0.000000 0.000000 0.855000 O
0.666667 0.333333 0.478333 O
0.666667 0.333333 0.188333 O
0.333333 0.666667 0.811667 O
0.333333 0.666667 0.521667 O
0.833330 0.166670 0.311670 O
0.833330 0.666660 0.311670 O
0.333340 0.166670 0.311670 O
0.166670 0.833330 0.688330 O
0.666660 0.833330 0.688330 O
0.166670 0.333340 0.688330 O
0.499997 0.500003 0.645003 O
0.499997 0.999993 0.645003 O
0.000007 0.500003 0.645003 O
0.833337 0.166663 0.021663 O
0.333327 0.166663 0.021663 O
0.833337 0.666673 0.021663 O
0.166663 0.833337 0.978337 O
0.166663 0.333327 0.978337 O
0.666673 0.833337 0.978337 O
0.500003 0.499997 0.354997 O
0.999993 0.499997 0.354997 O
0.500003 0.000007 0.354997 O
0.666670 0.833330 0.478330 O
0.166670 0.833340 0.478330 O
0.166660 0.333330 0.478330 O
0.833330 0.666670 0.521670 O
0.833340 0.166670 0.521670 O
0.333330 0.166660 0.521670 O
0.333337 0.166663 0.811663 O
0.833337 0.166673 0.811663 O
0.833327 0.666663 0.811663 O
0.499997 0.000003 0.855003 O
0.500007 0.500003 0.855003 O
0.999997 0.499993 0.855003 O
0.000003 0.499997 0.144997 O
0.500003 0.500007 0.144997 O
0.499993 0.999997 0.144997 O
0.166663 0.333337 0.188337 O
0.166673 0.833337 0.188337 O
0.666663 0.833327 0.188337 O
0.000000 0.000000 0.645000 O
0.000000 0.000000 0.355000 O
0.666667 0.333333 0.978333 O
0.666667 0.333333 0.688333 O
0.333333 0.666667 0.311667 O
0.333333 0.666667 0.021667 O
0.000000 0.000000 0.060000 O
0.000000 0.000000 0.940000 O
0.666667 0.333333 0.393333 O
0.666667 0.333333 0.273333 O
0.333333 0.666667 0.726667 O
0.333333 0.666667 0.606667 O
0.833330 0.166670 0.226670 O
0.833330 0.666660 0.226670 O
0.333340 0.166670 0.226670 O
0.166670 0.833330 0.773330 O
0.666660 0.833330 0.773330 O
0.166670 0.333340 0.773330 O
0.499997 0.500003 0.560003 O
0.499997 0.999993 0.560003 O
0.000007 0.500003 0.560003 O
0.833337 0.166663 0.106663 O
0.333327 0.166663 0.106663 O
0.833337 0.666673 0.106663 O
0.166663 0.833337 0.893337 O
0.166663 0.333327 0.893337 O
0.666673 0.833337 0.893337 O
0.500003 0.499997 0.439997 O
0.999993 0.499997 0.439997 O
0.500003 0.000007 0.439997 O
0.666670 0.833330 0.393330 O
0.166670 0.833340 0.393330 O
0.166660 0.333330 0.393330 O
0.833330 0.666670 0.606670 O
0.833340 0.166670 0.606670 O
0.333330 0.166660 0.606670 O
0.333337 0.166663 0.726663 O
0.833337 0.166673 0.726663 O
0.833327 0.666663 0.726663 O
0.499997 0.000003 0.940003 O
0.500007 0.500003 0.940003 O
0.999997 0.499993 0.940003 O
0.000003 0.499997 0.059997 O
0.500003 0.500007 0.059997 O
0.499993 0.999997 0.059997 O
0.166663 0.333337 0.273337 O
0.166673 0.833337 0.273337 O
0.666663 0.833327 0.273337 O
0.000000 0.000000 0.560000 O
0.000000 0.000000 0.440000 O
0.666667 0.333333 0.893333 O
0.666667 0.333333 0.773333 O
0.333333 0.666667 0.226667 O
0.333333 0.666667 0.106667 O
