Li24 Co48 O96
1.0
2.780000 0.000000 0.000000
-1.390000 2.407551 0.000000
0.000000 0.000000 207.600006
Li Co O
   9  48  96
direct
0.000000 0.000000 0.062500 Li
0.666667 0.333333 0.395833 Li
0.333333 0.666667 0.729167 Li
0.000000 0.000000 0.437500 Li
0.666667 0.333333 0.770833 Li
0.333333 0.666667 0.104167 Li
0.000000 0.000000 0.562500 Li
0.666667 0.333333 0.895833 Li
0.333333 0.666667 0.229167 Li
0.000000 0.000000 0.990000 Co
0.666667 0.333333 0.323333 Co
0.333333 0.666667 0.656667 Co
0.000000 0.000000 0.885000 Co
0.666667 0.333333 0.218333 Co
0.333333 0.666667 0.551667 Co
0.333330 0.666670 0.031670 Co
0.999997 0.000003 0.365003 Co
0.666663 0.333337 0.698337 Co
0.333330 0.666670 0.926670 Co
0.999997 0.000003 0.260003 Co
0.666663 0.333337 0.593337 Co
0.666670 0.333330 0.073330 Co
0.333337 0.666663 0.406663 Co
0.000003 0.999997 0.739997 Co
0.666670 0.333330 0.968330 Co
0.333337 0.666663 0.301663 Co
0.000003 0.999997 0.634997 Co
0.000000 0.000000 0.115000 Co
0.666667 0.333333 0.448333 Co
0.333333 0.666667 0.781667 Co
0.000000 0.000000 0.240000 Co
0.666667 0.333333 0.573333 Co
0.333333 0.666667 0.906667 Co
0.000000 0.000000 0.490000 Co
0.666667 0.333333 0.823333 Co
0.333333 0.666667 0.156667 Co
0.000000 0.000000 0.615000 Co
0.666667 0.333333 0.948333 Co
0.333333 0.666667 0.281667 Co
0.000000 0.000000 0.865000 Co
0.666667 0.333333 0.198333 Co
0.333333 0.666667 0.531667 Co
0.000000 0.000000 0.010000 Co
0.666667 0.333333 0.343333 Co
0.333333 0.666667 0.676667 Co
0.333330 0.666670 0.051670 Co
0.999997 0.000003 0.385003 Co
0.666663 0.333337 0.718337 Co
0.666670 0.333330 0.093330 Co
0.333337 0.666663 0.426663 Co
0.000003 0.999997 0.759997 Co
0.000000 0.000000 0.135000 Co
0.666667 0.333333 0.468333 Co
0.333333 0.666667 0.801667 Co
0.333330 0.666670 0.176670 Co
0.999997 0.000003 0.510003 Co
0.666663 0.333337 0.843337 Co
0.000000 0.000000 0.973750 O
0.666667 0.333333 0.307083 O
0.333333 0.666667 0.640417 O
0.000000 0.000000 0.901250 O
0.666667 0.333333 0.234583 O
0.333333 0.666667 0.567917 O
0.333330 0.666670 0.015420 O
0.999997 0.000003 0.348753 O
0.666663 0.333337 0.682087 O
0.333330 0.666670 0.942920 O
0.999997 0.000003 0.276253 O
0.666663 0.333337 0.609587 O
0.666670 0.333330 0.057080 O
0.333337 0.666663 0.390413 O
0.000003 0.999997 0.723747 O
0.666670 0.333330 0.984580 O
0.333337 0.666663 0.317913 O
0.000003 0.999997 0.651247 O
0.000000 0.000000 0.098750 O
0.666667 0.333333 0.432083 O
0.333333 0.666667 0.765417 O
0.000000 0.000000 0.223750 O
0.666667 0.333333 0.557083 O
0.333333 0.666667 0.890417 O
0.000000 0.000000 0.473750 O
0.666667 0.333333 0.807083 O
0.333333 0.666667 0.140417 O
0.000000 0.000000 0.598750 O
0.666667 0.333333 0.932083 O
0.333333 0.666667 0.265417 O
0.000000 0.000000 0.848750 O
0.666667 0.333333 0.182083 O
0.333333 0.666667 0.515417 O
0.000000 0.000000 0.026250 O
0.666667 0.333333 0.359583 O
0.333333 0.666667 0.692917 O
0.333330 0.666670 0.067920 O
0.999997 0.000003 0.401253 O
0.666663 0.333337 0.734587 O
0.666670 0.333330 0.109580 O
0.333337 0.666663 0.442913 O
0.000003 0.999997 0.776247 O
0.000000 0.000000 0.151250 O
0.666667 0.333333 0.484583 O
0.333333 0.666667 0.817917 O
0.333330 0.666670 0.192920 O
0.999997 0.000003 0.526253 O
0.666663 0.333337 0.859587 O
0.000000 0.000000 0.952500 O
0.666667 0.333333 0.285833 O
0.333333 0.666667 0.619167 O
0.000000 0.000000 0.922500 O
0.666667 0.333333 0.255833 O
0.333333 0.666667 0.589167 O
0.333330 0.666670 0.994170 O
0.999997 0.000003 0.327503 O
0.666663 0.333337 0.660837 O
0.333330 0.666670 0.964170 O
0.999997 0.000003 0.297503 O
0.666663 0.333337 0.630837 O
0.666670 0.333330 0.035830 O
0.333337 0.666663 0.369163 O
0.000003 0.999997 0.702497 O
0.666670 0.333330 0.005830 O
0.333337 0.666663 0.339163 O
0.000003 0.999997 0.672497 O
0.000000 0.000000 0.077500 O
0.666667 0.333333 0.410833 O
0.333333 0.666667 0.744167 O
0.000000 0.000000 0.202500 O
0.666667 0.333333 0.535833 O
0.333333 0.666667 0.869167 O
0.000000 0.000000 0.452500 O
0.666667 0.333333 0.785833 O
0.333333 0.666667 0.119167 O
0.000000 0.000000 0.577500 O
0.666667 0.333333 0.910833 O
0.333333 0.666667 0.244167 O
0.000000 0.000000 0.827500 O
0.666667 0.333333 0.160833 O
0.333333 0.666667 0.494167 O
0.000000 0.000000 0.047500 O
0.666667 0.333333 0.380833 O
0.333333 0.666667 0.714167 O
0.333330 0.666670 0.089170 O
0.999997 0.000003 0.422503 O
0.666663 0.333337 0.755837 O
0.666670 0.333330 0.130830 O
0.333337 0.666663 0.464163 O
0.000003 0.999997 0.797497 O
0.000000 0.000000 0.172500 O
0.666667 0.333333 0.505833 O
0.333333 0.666667 0.839167 O
0.333330 0.666670 0.214170 O
0.999997 0.000003 0.547503 O
0.666663 0.333337 0.880837 O
