Li12 C72
1.0
4.299500 0.000000 0.000000
-2.149750 3.723476 0.000000
0.000000 0.000000 43.199997
Li C
   8  72
direct
0.333333 0.666667 0.960650 Li
0.666667 0.333333 0.039350 Li
0.666667 0.333333 0.706020 Li
0.333333 0.666667 0.293980 Li
0.333333 0.666667 0.127310 Li
0.666667 0.333333 0.872690 Li
0.333333 0.666667 0.460650 Li
0.666667 0.333333 0.539350 Li
0.333333 0.333333 0.833330 C
0.666667 0.000000 0.833330 C
0.000000 0.666667 0.833330 C
0.333333 0.333333 0.166670 C
0.000000 0.666667 0.166670 C
0.666667 0.000000 0.166670 C
0.333333 0.333333 0.000000 C
0.666667 0.000000 0.000000 C
0.000000 0.666667 0.000000 C
0.333333 0.333333 0.333333 C
0.666667 0.000000 0.333333 C
0.000000 0.666667 0.333333 C
0.333333 0.333333 0.666667 C
0.000000 0.666667 0.666667 C
0.666667 0.000000 0.666667 C
0.333333 0.333333 0.500000 C
0.666667 0.000000 0.500000 C
0.000000 0.666667 0.500000 C
0.666667 0.333333 0.833330 C
0.333333 0.666667 0.166670 C
0.333333 0.666667 0.833330 C
0.666667 0.333333 0.166670 C
0.666667 0.333333 0.000000 C
0.333333 0.666667 0.000000 C
0.666667 0.333333 0.333333 C
0.333333 0.666667 0.666667 C
0.666667 0.333333 0.500000 C
0.333333 0.666667 0.500000 C
0.666667 0.333333 0.666667 C
0.333333 0.666667 0.333333 C
0.000000 0.666667 0.916670 C
0.333333 0.333333 0.916670 C
0.666667 0.000000 0.916670 C
0.666667 0.000000 0.083330 C
0.333333 0.333333 0.083330 C
0.000000 0.666667 0.083330 C
0.666667 0.000000 0.750000 C
0.000000 0.666667 0.750000 C
0.333333 0.333333 0.750000 C
0.000000 0.666667 0.250000 C
0.666667 0.000000 0.250000 C
0.333333 0.333333 0.250000 C
0.000000 0.666667 0.416670 C
0.333333 0.333333 0.416670 C
0.666667 0.000000 0.416670 C
0.666667 0.000000 0.583330 C
0.333333 0.333333 0.583330 C
0.000000 0.666667 0.583330 C
0.666667 0.666667 0.916670 C
0.333333 0.000000 0.916670 C
0.000000 0.333333 0.916670 C
0.666667 0.666667 0.083330 C
0.000000 0.333333 0.083330 C
0.333333 0.000000 0.083330 C
0.666667 0.666667 0.750000 C
0.333333 0.000000 0.750000 C
0.000000 0.333333 0.750000 C
0.666667 0.666667 0.250000 C
0.000000 0.333333 0.250000 C
0.333333 0.000000 0.250000 C
0.666667 0.666667 0.416670 C
0.333333 0.000000 0.416670 C
0.000000 0.333333 0.416670 C
0.666667 0.666667 0.583330 C
0.000000 0.333333 0.583330 C
0.333333 0.000000 0.583330 C
0.000000 0.000000 0.833330 C
0.000000 0.000000 0.166670 C
0.000000 0.000000 0.000000 C
0.000000 0.000000 0.333333 C
0.000000 0.000000 0.666667 C
0.000000 0.000000 0.500000 C
