Li12 Co24 O48
1.0
2.780000 0.000000 0.000000
-1.390000 2.407551 0.000000
0.000000 0.000000 103.800003
Li Co O
   3  24  48
direct
0.000000 0.000000 0.875000 Li
0.666667 0.333333 0.208333 Li
0.333333 0.666667 0.541667 Li
0.000000 0.000000 0.980000 Co
0.666667 0.333333 0.313333 Co
0.333333 0.666667 0.646667 Co
0.000000 0.000000 0.770000 Co
0.666667 0.333333 0.103333 Co
0.333333 0.666667 0.436667 Co
0.666670 0.333330 0.063330 Co
0.333337 0.666663 0.396663 Co
0.000003 0.999997 0.729997 Co
0.666670 0.333330 0.853330 Co
0.333337 0.666663 0.186663 Co
0.000003 0.999997 0.519997 Co
0.333330 0.666670 0.146670 Co
0.999997 0.000003 0.480003 Co
0.666663 0.333337 0.813337 Co
0.333330 0.666670 0.936670 Co
0.999997 0.000003 0.270003 Co
0.666663 0.333337 0.603337 Co
0.000000 0.000000 0.230000 Co
0.666667 0.333333 0.563333 Co
0.333333 0.666667 0.896667 Co
0.000000 0.000000 0.020000 Co
0.666667 0.333333 0.353333 Co
0.333333 0.666667 0.686667 Co
0.000000 0.000000 0.947500 O
0.666667 0.333333 0.280833 O
0.333333 0.666667 0.614167 O
0.000000 0.000000 0.802500 O
0.666667 0.333333 0.135833 O
0.333333 0.666667 0.469167 O
0.666670 0.333330 0.030830 O
0.333337 0.666663 0.364163 O
0.000003 0.999997 0.697497 O
0.666670 0.333330 0.885830 O
0.333337 0.666663 0.219163 O
0.000003 0.999997 0.552497 O
0.333330 0.666670 0.114170 O
0.999997 0.000003 0.447503 O
0.666663 0.333337 0.780837 O
0.333330 0.666670 0.969170 O
0.999997 0.000003 0.302503 O
0.666663 0.333337 0.635837 O
0.000000 0.000000 0.197500 O
0.666667 0.333333 0.530833 O
0.333333 0.666667 0.864167 O
0.000000 0.000000 0.052500 O
0.666667 0.333333 0.385833 O
0.333333 0.666667 0.719167 O
0.000000 0.000000 0.905000 O
0.666667 0.333333 0.238333 O
0.333333 0.666667 0.571667 O
0.000000 0.000000 0.845000 O
0.666667 0.333333 0.178333 O
0.333333 0.666667 0.511667 O
0.666670 0.333330 0.988330 O
0.333337 0.666663 0.321663 O
0.000003 0.999997 0.654997 O
0.666670 0.333330 0.928330 O
0.333337 0.666663 0.261663 O
0.000003 0.999997 0.594997 O
0.333330 0.666670 0.071670 O
0.999997 0.000003 0.405003 O
0.666663 0.333337 0.738337 O
0.333330 0.666670 0.011670 O
0.999997 0.000003 0.345003 O
0.666663 0.333337 0.678337 O
0.000000 0.000000 0.155000 O
0.666667 0.333333 0.488333 O
0.333333 0.666667 0.821667 O
0.000000 0.000000 0.095000 O
0.666667 0.333333 0.428333 O
0.333333 0.666667 0.761667 O
