Li21 Co21 O42
1.0
2.815600 0.000000 0.000000
-1.407800 2.438381 0.000000
0.000000 0.000000 98.379402
Li Co O
   15  21  42
direct
0.000000 0.000000 0.285710 Li
0.000000 0.000000 0.714290 Li
0.666667 0.333333 0.619043 Li
0.666667 0.333333 0.047623 Li
0.333333 0.666667 0.952377 Li
0.333333 0.666667 0.380957 Li
0.666670 0.333330 0.333330 Li
0.333330 0.666670 0.666670 Li
0.999997 0.000003 0.000003 Li
0.000000 0.000000 0.857140 Li
0.000000 0.000000 0.142860 Li
0.666667 0.333333 0.190473 Li
0.666667 0.333333 0.476193 Li
0.333333 0.666667 0.523807 Li
0.333333 0.666667 0.809527 Li
0.000000 0.000000 0.357140 Co
0.000000 0.000000 0.642860 Co
0.666667 0.333333 0.690473 Co
0.666667 0.333333 0.976193 Co
0.333333 0.666667 0.023807 Co
0.333333 0.666667 0.309527 Co
0.000000 0.000000 0.214290 Co
0.000000 0.000000 0.785710 Co
0.666667 0.333333 0.547623 Co
0.666667 0.333333 0.119043 Co
0.333333 0.666667 0.880957 Co
0.333333 0.666667 0.452377 Co
0.666670 0.333330 0.404760 Co
0.333330 0.666670 0.595240 Co
0.333337 0.666663 0.738093 Co
0.999997 0.000003 0.928573 Co
0.000003 0.999997 0.071427 Co
0.666663 0.333337 0.261907 Co
0.000000 0.000000 0.500000 Co
0.666667 0.333333 0.833333 Co
0.333333 0.666667 0.166667 Co
0.000000 0.000000 0.319950 O
0.000000 0.000000 0.680050 O
0.666667 0.333333 0.653283 O
0.666667 0.333333 0.013383 O
0.333333 0.666667 0.986617 O
0.333333 0.666667 0.346717 O
0.000000 0.000000 0.251470 O
0.000000 0.000000 0.748530 O
0.666667 0.333333 0.584803 O
0.666667 0.333333 0.081863 O
0.333333 0.666667 0.918137 O
0.333333 0.666667 0.415197 O
0.666670 0.333330 0.367570 O
0.333330 0.666670 0.632430 O
0.333337 0.666663 0.700903 O
0.999997 0.000003 0.965763 O
0.000003 0.999997 0.034237 O
0.666663 0.333337 0.299097 O
0.000000 0.000000 0.462810 O
0.000000 0.000000 0.537190 O
0.666667 0.333333 0.796143 O
0.666667 0.333333 0.870523 O
0.333333 0.666667 0.129477 O
0.333333 0.666667 0.203857 O
0.000000 0.000000 0.605670 O
0.000000 0.000000 0.394330 O
0.666667 0.333333 0.939003 O
0.666667 0.333333 0.727663 O
0.333333 0.666667 0.272337 O
0.333333 0.666667 0.060997 O
0.000000 0.000000 0.891380 O
0.000000 0.000000 0.108620 O
0.666667 0.333333 0.224713 O
0.666667 0.333333 0.441953 O
0.333333 0.666667 0.558047 O
0.333333 0.666667 0.775287 O
0.000000 0.000000 0.177100 O
0.000000 0.000000 0.822900 O
0.666667 0.333333 0.510433 O
0.666667 0.333333 0.156233 O
0.333333 0.666667 0.843767 O
0.333333 0.666667 0.489567 O
