Li15 Co15 O30
1.0
2.815600 0.000000 0.000000
-1.407800 2.438381 0.000000
0.000000 0.000000 70.270996
Li Co O
   3  15  30
direct
0.000000 0.000000 0.600000 Li
0.666667 0.333333 0.933333 Li
0.333333 0.666667 0.266667 Li
0.000000 0.000000 0.700000 Co
0.666667 0.333333 0.033333 Co
0.333333 0.666667 0.366667 Co
0.000000 0.000000 0.500000 Co
0.666667 0.333333 0.833333 Co
0.333333 0.666667 0.166667 Co
0.333330 0.666670 0.766670 Co
0.999997 0.000003 0.100003 Co
0.666663 0.333337 0.433337 Co
0.333330 0.666670 0.566670 Co
0.999997 0.000003 0.900003 Co
0.666663 0.333337 0.233337 Co
0.666670 0.333330 0.633330 Co
0.333337 0.666663 0.966663 Co
0.000003 0.999997 0.299997 Co
0.000000 0.000000 0.647940 O
0.666667 0.333333 0.981273 O
0.333333 0.666667 0.314607 O
0.000000 0.000000 0.552060 O
0.666667 0.333333 0.885393 O
0.333333 0.666667 0.218727 O
0.333330 0.666670 0.714600 O
0.999997 0.000003 0.047933 O
0.666663 0.333337 0.381267 O
0.333330 0.666670 0.618730 O
0.999997 0.000003 0.952063 O
0.666663 0.333337 0.285397 O
0.666670 0.333330 0.781270 O
0.333337 0.666663 0.114603 O
0.000003 0.999997 0.447937 O
0.666670 0.333330 0.685400 O
0.333337 0.666663 0.018733 O
0.000003 0.999997 0.352067 O
0.000000 0.000000 0.847940 O
0.666667 0.333333 0.181273 O
0.333333 0.666667 0.514607 O
0.000000 0.000000 0.247940 O
0.666667 0.333333 0.581273 O
0.333333 0.666667 0.914607 O
0.000000 0.000000 0.752060 O
0.666667 0.333333 0.085393 O
0.333333 0.666667 0.418727 O
0.333330 0.666670 0.818730 O
0.999997 0.000003 0.152063 O
0.666663 0.333337 0.485397 O
