Li9 C54
1.0
12.969881 0.000000 0.000000
-6.484940 11.232246 0.000000
0.000000 0.000000 3.745368
Li C
   6  54
direct
0.222220 0.777780 0.000000 Li
0.222220 0.444440 0.000000 Li
0.555560 0.777780 0.000000 Li
0.888890 0.777780 0.000000 Li
0.222220 0.111110 0.000000 Li
0.888890 0.111110 0.000000 Li
0.111040 0.777780 0.500000 C
0.222220 0.333260 0.500000 C
0.666740 0.888960 0.500000 C
0.222220 0.666590 0.500000 C
0.333410 0.555630 0.500000 C
0.444370 0.777780 0.500000 C
0.333410 0.888960 0.500000 C
0.111040 0.444450 0.500000 C
0.555550 0.666590 0.500000 C
0.333410 0.777780 0.500000 C
0.222220 0.555630 0.500000 C
0.444370 0.666590 0.500000 C
0.222220 0.888960 0.500000 C
0.111040 0.333260 0.500000 C
0.666740 0.777780 0.500000 C
0.111040 0.666590 0.500000 C
0.333410 0.444450 0.500000 C
0.555550 0.888960 0.500000 C
0.444370 0.111110 0.500000 C
0.888890 0.333260 0.500000 C
0.666740 0.555630 0.500000 C
0.777700 0.444440 0.500000 C
0.555560 0.333260 0.500000 C
0.666740 0.222300 0.500000 C
0.777700 0.777780 0.500000 C
0.222220 0.999920 0.500000 C
0.000080 0.222300 0.500000 C
0.555560 0.000000 0.500000 C
0.000000 0.555560 0.500000 C
0.444440 0.444440 0.500000 C
0.666740 0.111110 0.500000 C
0.888890 0.555630 0.500000 C
0.444370 0.333260 0.500000 C
0.555560 0.222290 0.500000 C
0.777710 0.333270 0.500000 C
0.666730 0.444440 0.500000 C
0.444370 0.000000 0.500000 C
0.000000 0.444370 0.500000 C
0.555630 0.555630 0.500000 C
0.111040 0.111110 0.500000 C
0.888890 0.999930 0.500000 C
0.000070 0.888960 0.500000 C
0.777700 0.111110 0.500000 C
0.888890 0.666590 0.500000 C
0.333410 0.222300 0.500000 C
0.000000 0.777780 0.500000 C
0.222220 0.222220 0.500000 C
0.777780 0.000000 0.500000 C
0.888890 0.888960 0.500000 C
0.111040 0.999930 0.500000 C
0.000070 0.111110 0.500000 C
0.777700 0.666590 0.500000 C
0.333410 0.111110 0.500000 C
0.888890 0.222300 0.500000 C
