Li7 C42
1.0
4.323294 0.000000 0.000000
-2.161647 3.744082 0.000000
0.000000 0.000000 26.217575
Li C
   2  42
direct
0.000000 0.000000 0.571430 Li
0.000000 0.000000 0.142860 Li
0.000000 0.333550 0.642860 C
0.666450 0.666450 0.642860 C
0.333550 0.000000 0.642860 C
0.000000 0.666450 0.642860 C
0.333550 0.333550 0.642860 C
0.666450 0.000000 0.642860 C
0.333550 0.000000 0.500000 C
0.000000 0.333550 0.500000 C
0.666450 0.666450 0.500000 C
0.666450 0.000000 0.500000 C
0.000000 0.666450 0.500000 C
0.333550 0.333550 0.500000 C
0.000000 0.333550 0.785710 C
0.666450 0.666450 0.785710 C
0.333550 0.000000 0.785710 C
0.000000 0.666450 0.785710 C
0.333550 0.333550 0.785710 C
0.666450 0.000000 0.785710 C
0.000000 0.333550 0.928570 C
0.666450 0.666450 0.928570 C
0.333550 0.000000 0.928570 C
0.000000 0.666450 0.928570 C
0.333550 0.333550 0.928570 C
0.666450 0.000000 0.928570 C
0.000000 0.333550 0.071430 C
0.666450 0.666450 0.071430 C
0.333550 0.000000 0.071430 C
0.000000 0.666450 0.071430 C
0.333550 0.333550 0.071430 C
0.666450 0.000000 0.071430 C
0.000000 0.333550 0.214290 C
0.666450 0.666450 0.214290 C
0.333550 0.000000 0.214290 C
0.000000 0.666450 0.214290 C
0.333550 0.333550 0.214290 C
0.666450 0.000000 0.214290 C
0.000000 0.333550 0.357140 C
0.666450 0.666450 0.357140 C
0.333550 0.000000 0.357140 C
0.000000 0.666450 0.357140 C
0.333550 0.333550 0.357140 C
0.666450 0.000000 0.357140 C
