Li4 Co4 O8
1.0
2.402489 0.000000 4.337892
-0.000000 2.815600 0.000000
0.000000 0.000000 19.018879
Li Co O
   3  4  8
direct
0.000000 0.000000 0.750000 Li
0.000000 0.000000 0.250000 Li
0.000000 0.500000 0.500000 Li
0.500000 0.000000 0.500000 Co
0.500000 0.500000 0.250000 Co
0.500000 0.500000 0.750000 Co
0.500000 0.000000 0.000000 Co
0.760320 0.000000 0.630160 O
0.239680 0.000000 0.369840 O
0.760320 0.500000 0.380160 O
0.239680 0.500000 0.619840 O
0.239680 0.500000 0.119840 O
0.760320 0.500000 0.880160 O
0.239680 0.000000 0.869840 O
0.760320 0.000000 0.130160 O
