Li24 Co48 O96
1.0
2.780000 0.000000 0.000000
-1.390000 2.407551 0.000000
0.000000 0.000000 207.600006
Li Co O
   18  48  96
direct
0.000000 0.000000 0.000000 Li
0.666667 0.333333 0.333333 Li
0.333333 0.666667 0.666667 Li
0.333330 0.666670 0.041670 Li
0.666670 0.333330 0.958330 Li
0.999997 0.000003 0.375003 Li
0.333337 0.666663 0.291663 Li
0.666663 0.333337 0.708337 Li
0.000003 0.999997 0.624997 Li
0.666670 0.333330 0.083330 Li
0.333330 0.666670 0.916670 Li
0.333337 0.666663 0.416663 Li
0.999997 0.000003 0.250003 Li
0.000003 0.999997 0.749997 Li
0.666663 0.333337 0.583337 Li
0.000000 0.000000 0.500000 Li
0.666667 0.333333 0.833333 Li
0.333333 0.666667 0.166667 Li
0.000000 0.000000 0.052500 Co
0.000000 0.000000 0.947500 Co
0.666667 0.333333 0.385833 Co
0.666667 0.333333 0.280833 Co
0.333333 0.666667 0.719167 Co
0.333333 0.666667 0.614167 Co
0.333330 0.666670 0.094170 Co
0.666670 0.333330 0.905830 Co
0.999997 0.000003 0.427503 Co
0.333337 0.666663 0.239163 Co
0.666663 0.333337 0.760837 Co
0.000003 0.999997 0.572497 Co
0.333330 0.666670 0.989170 Co
0.666670 0.333330 0.010830 Co
0.999997 0.000003 0.322503 Co
0.333337 0.666663 0.344163 Co
0.666663 0.333337 0.655837 Co
0.000003 0.999997 0.677497 Co
0.666670 0.333330 0.135830 Co
0.333330 0.666670 0.864170 Co
0.333337 0.666663 0.469163 Co
0.999997 0.000003 0.197503 Co
0.000003 0.999997 0.802497 Co
0.666663 0.333337 0.530837 Co
0.666670 0.333330 0.030830 Co
0.333330 0.666670 0.969170 Co
0.333337 0.666663 0.364163 Co
0.999997 0.000003 0.302503 Co
0.000003 0.999997 0.697497 Co
0.666663 0.333337 0.635837 Co
0.000000 0.000000 0.177500 Co
0.000000 0.000000 0.822500 Co
0.666667 0.333333 0.510833 Co
0.666667 0.333333 0.155833 Co
0.333333 0.666667 0.844167 Co
0.333333 0.666667 0.489167 Co
0.000000 0.000000 0.552500 Co
0.000000 0.000000 0.447500 Co
0.666667 0.333333 0.885833 Co
0.666667 0.333333 0.780833 Co
0.333333 0.666667 0.219167 Co
0.333333 0.666667 0.114167 Co
0.000000 0.000000 0.927500 Co
0.000000 0.000000 0.072500 Co
0.666667 0.333333 0.260833 Co
0.666667 0.333333 0.405833 Co
0.333333 0.666667 0.594167 Co
0.333333 0.666667 0.739167 Co
0.000000 0.000000 0.036250 O
0.000000 0.000000 0.963750 O
0.666667 0.333333 0.369583 O
0.666667 0.333333 0.297083 O
0.333333 0.666667 0.702917 O
0.333333 0.666667 0.630417 O
0.333330 0.666670 0.077920 O
0.666670 0.333330 0.922080 O
0.999997 0.000003 0.411253 O
0.333337 0.666663 0.255413 O
0.666663 0.333337 0.744587 O
0.000003 0.999997 0.588747 O
0.333330 0.666670 0.005420 O
0.666670 0.333330 0.994580 O
0.999997 0.000003 0.338753 O
0.333337 0.666663 0.327913 O
0.666663 0.333337 0.672087 O
0.000003 0.999997 0.661247 O
0.666670 0.333330 0.119580 O
0.333330 0.666670 0.880420 O
0.333337 0.666663 0.452913 O
0.999997 0.000003 0.213753 O
0.000003 0.999997 0.786247 O
0.666663 0.333337 0.547087 O
0.666670 0.333330 0.047080 O
0.333330 0.666670 0.952920 O
0.333337 0.666663 0.380413 O
0.999997 0.000003 0.286253 O
0.000003 0.999997 0.713747 O
0.666663 0.333337 0.619587 O
0.000000 0.000000 0.161250 O
0.000000 0.000000 0.838750 O
0.666667 0.333333 0.494583 O
0.666667 0.333333 0.172083 O
0.333333 0.666667 0.827917 O
0.333333 0.666667 0.505417 O
0.000000 0.000000 0.536250 O
0.000000 0.000000 0.463750 O
0.666667 0.333333 0.869583 O
0.666667 0.333333 0.797083 O
0.333333 0.666667 0.202917 O
0.333333 0.666667 0.130417 O
0.000000 0.000000 0.911250 O
0.000000 0.000000 0.088750 O
0.666667 0.333333 0.244583 O
0.666667 0.333333 0.422083 O
0.333333 0.666667 0.577917 O
0.333333 0.666667 0.755417 O
0.000000 0.000000 0.015000 O
0.000000 0.000000 0.985000 O
0.666667 0.333333 0.348333 O
0.666667 0.333333 0.318333 O
0.333333 0.666667 0.681667 O
0.333333 0.666667 0.651667 O
0.333330 0.666670 0.056670 O
0.666670 0.333330 0.943330 O
0.999997 0.000003 0.390003 O
0.333337 0.666663 0.276663 O
0.666663 0.333337 0.723337 O
0.000003 0.999997 0.609997 O
0.333330 0.666670 0.026670 O
0.666670 0.333330 0.973330 O
0.999997 0.000003 0.360003 O
0.333337 0.666663 0.306663 O
0.666663 0.333337 0.693337 O
0.000003 0.999997 0.639997 O
0.666670 0.333330 0.098330 O
0.333330 0.666670 0.901670 O
0.333337 0.666663 0.431663 O
0.999997 0.000003 0.235003 O
0.000003 0.999997 0.764997 O
0.666663 0.333337 0.568337 O
0.666670 0.333330 0.068330 O
0.333330 0.666670 0.931670 O
0.333337 0.666663 0.401663 O
0.999997 0.000003 0.265003 O
0.000003 0.999997 0.734997 O
0.666663 0.333337 0.598337 O
0.000000 0.000000 0.140000 O
0.000000 0.000000 0.860000 O
0.666667 0.333333 0.473333 O
0.666667 0.333333 0.193333 O
0.333333 0.666667 0.806667 O
0.333333 0.666667 0.526667 O
0.000000 0.000000 0.515000 O
0.000000 0.000000 0.485000 O
0.666667 0.333333 0.848333 O
0.666667 0.333333 0.818333 O
0.333333 0.666667 0.181667 O
0.333333 0.666667 0.151667 O
0.000000 0.000000 0.890000 O
0.000000 0.000000 0.110000 O
0.666667 0.333333 0.223333 O
0.666667 0.333333 0.443333 O
0.333333 0.666667 0.556667 O
0.333333 0.666667 0.776667 O
