Li24 Co48 O96
1.0
2.780000 0.000000 0.000000
-1.390000 2.407551 0.000000
0.000000 0.000000 207.600006
Li Co O
   6  48  96
direct
0.000000 0.000000 0.562500 Li
0.000000 0.000000 0.437500 Li
0.666667 0.333333 0.895833 Li
0.666667 0.333333 0.770833 Li
0.333333 0.666667 0.229167 Li
0.333333 0.666667 0.104167 Li
0.000000 0.000000 0.615000 Co
0.000000 0.000000 0.385000 Co
0.666667 0.333333 0.948333 Co
0.666667 0.333333 0.718333 Co
0.333333 0.666667 0.281667 Co
0.333333 0.666667 0.051667 Co
0.000000 0.000000 0.510000 Co
0.000000 0.000000 0.490000 Co
0.666667 0.333333 0.843333 Co
0.666667 0.333333 0.823333 Co
0.333333 0.666667 0.176667 Co
0.333333 0.666667 0.156667 Co
0.333330 0.666670 0.656670 Co
0.666670 0.333330 0.343330 Co
0.999997 0.000003 0.990003 Co
0.333337 0.666663 0.676663 Co
0.666663 0.333337 0.323337 Co
0.000003 0.999997 0.009997 Co
0.333330 0.666670 0.551670 Co
0.666670 0.333330 0.448330 Co
0.999997 0.000003 0.885003 Co
0.333337 0.666663 0.781663 Co
0.666663 0.333337 0.218337 Co
0.000003 0.999997 0.114997 Co
0.666670 0.333330 0.698330 Co
0.333330 0.666670 0.301670 Co
0.333337 0.666663 0.031663 Co
0.999997 0.000003 0.635003 Co
0.000003 0.999997 0.364997 Co
0.666663 0.333337 0.968337 Co
0.666670 0.333330 0.593330 Co
0.333330 0.666670 0.406670 Co
0.333337 0.666663 0.926663 Co
0.999997 0.000003 0.740003 Co
0.000003 0.999997 0.259997 Co
0.666663 0.333337 0.073337 Co
0.000000 0.000000 0.865000 Co
0.000000 0.000000 0.135000 Co
0.666667 0.333333 0.198333 Co
0.666667 0.333333 0.468333 Co
0.333333 0.666667 0.531667 Co
0.333333 0.666667 0.801667 Co
0.000000 0.000000 0.240000 Co
0.000000 0.000000 0.760000 Co
0.666667 0.333333 0.573333 Co
0.666667 0.333333 0.093333 Co
0.333333 0.666667 0.906667 Co
0.333333 0.666667 0.426667 Co
0.000000 0.000000 0.598750 O
0.000000 0.000000 0.401250 O
0.666667 0.333333 0.932083 O
0.666667 0.333333 0.734583 O
0.333333 0.666667 0.265417 O
0.333333 0.666667 0.067917 O
0.000000 0.000000 0.526250 O
0.000000 0.000000 0.473750 O
0.666667 0.333333 0.859583 O
0.666667 0.333333 0.807083 O
0.333333 0.666667 0.192917 O
0.333333 0.666667 0.140417 O
0.333330 0.666670 0.640420 O
0.666670 0.333330 0.359580 O
0.999997 0.000003 0.973753 O
0.333337 0.666663 0.692913 O
0.666663 0.333337 0.307087 O
0.000003 0.999997 0.026247 O
0.333330 0.666670 0.567920 O
0.666670 0.333330 0.432080 O
0.999997 0.000003 0.901253 O
0.333337 0.666663 0.765413 O
0.666663 0.333337 0.234587 O
0.000003 0.999997 0.098747 O
0.666670 0.333330 0.682080 O
0.333330 0.666670 0.317920 O
0.333337 0.666663 0.015413 O
0.999997 0.000003 0.651253 O
0.000003 0.999997 0.348747 O
0.666663 0.333337 0.984587 O
0.666670 0.333330 0.609580 O
0.333330 0.666670 0.390420 O
0.333337 0.666663 0.942913 O
0.999997 0.000003 0.723753 O
0.000003 0.999997 0.276247 O
0.666663 0.333337 0.057087 O
0.000000 0.000000 0.848750 O
0.000000 0.000000 0.151250 O
0.666667 0.333333 0.182083 O
0.666667 0.333333 0.484583 O
0.333333 0.666667 0.515417 O
0.333333 0.666667 0.817917 O
0.000000 0.000000 0.223750 O
0.000000 0.000000 0.776250 O
0.666667 0.333333 0.557083 O
0.666667 0.333333 0.109583 O
0.333333 0.666667 0.890417 O
0.333333 0.666667 0.442917 O
0.000000 0.000000 0.577500 O
0.000000 0.000000 0.422500 O
0.666667 0.333333 0.910833 O
0.666667 0.333333 0.755833 O
0.333333 0.666667 0.244167 O
0.333333 0.666667 0.089167 O
0.000000 0.000000 0.547500 O
0.000000 0.000000 0.452500 O
0.666667 0.333333 0.880833 O
0.666667 0.333333 0.785833 O
0.333333 0.666667 0.214167 O
0.333333 0.666667 0.119167 O
0.333330 0.666670 0.619170 O
0.666670 0.333330 0.380830 O
0.999997 0.000003 0.952503 O
0.333337 0.666663 0.714163 O
0.666663 0.333337 0.285837 O
0.000003 0.999997 0.047497 O
0.333330 0.666670 0.589170 O
0.666670 0.333330 0.410830 O
0.999997 0.000003 0.922503 O
0.333337 0.666663 0.744163 O
0.666663 0.333337 0.255837 O
0.000003 0.999997 0.077497 O
0.666670 0.333330 0.660830 O
0.333330 0.666670 0.339170 O
0.333337 0.666663 0.994163 O
0.999997 0.000003 0.672503 O
0.000003 0.999997 0.327497 O
0.666663 0.333337 0.005837 O
0.666670 0.333330 0.630830 O
0.333330 0.666670 0.369170 O
0.333337 0.666663 0.964163 O
0.999997 0.000003 0.702503 O
0.000003 0.999997 0.297497 O
0.666663 0.333337 0.035837 O
0.000000 0.000000 0.827500 O
0.000000 0.000000 0.172500 O
0.666667 0.333333 0.160833 O
0.666667 0.333333 0.505833 O
0.333333 0.666667 0.494167 O
0.333333 0.666667 0.839167 O
0.000000 0.000000 0.202500 O
0.000000 0.000000 0.797500 O
0.666667 0.333333 0.535833 O
0.666667 0.333333 0.130833 O
0.333333 0.666667 0.869167 O
0.333333 0.666667 0.464167 O
