Li12 C72
1.0
4.299500 0.000000 0.000000
-2.149750 3.723476 0.000000
0.000000 0.000000 43.199997
Li C
   3  72
direct
0.666667 0.333333 0.456020 Li
0.666667 0.333333 0.789353 Li
0.666667 0.333333 0.122687 Li
0.333333 0.333333 0.416670 C
0.666667 0.000000 0.750003 C
0.000000 0.666667 0.083337 C
0.666667 0.000000 0.416670 C
0.000000 0.666667 0.750003 C
0.333333 0.333333 0.083337 C
0.000000 0.666667 0.416670 C
0.333333 0.333333 0.750003 C
0.666667 0.000000 0.083337 C
0.333333 0.333333 0.583330 C
0.666667 0.000000 0.916663 C
0.000000 0.666667 0.249997 C
0.333333 0.333333 0.916670 C
0.666667 0.000000 0.250003 C
0.000000 0.666667 0.583337 C
0.333333 0.333333 0.250000 C
0.666667 0.000000 0.583333 C
0.000000 0.666667 0.916667 C
0.666667 0.333333 0.416670 C
0.666667 0.333333 0.750003 C
0.666667 0.333333 0.083337 C
0.333333 0.666667 0.416670 C
0.333333 0.666667 0.750003 C
0.333333 0.666667 0.083337 C
0.666667 0.333333 0.583330 C
0.666667 0.333333 0.916663 C
0.666667 0.333333 0.249997 C
0.333333 0.666667 0.583330 C
0.333333 0.666667 0.916663 C
0.333333 0.666667 0.249997 C
0.000000 0.666667 0.500000 C
0.333333 0.333333 0.833333 C
0.666667 0.000000 0.166667 C
0.333333 0.333333 0.500000 C
0.666667 0.000000 0.833333 C
0.000000 0.666667 0.166667 C
0.666667 0.000000 0.500000 C
0.000000 0.666667 0.833333 C
0.333333 0.333333 0.166667 C
0.666667 0.000000 0.333333 C
0.000000 0.666667 0.666667 C
0.333333 0.333333 0.000000 C
0.333333 0.333333 0.333333 C
0.666667 0.000000 0.666667 C
0.000000 0.666667 0.000000 C
0.000000 0.666667 0.333333 C
0.333333 0.333333 0.666667 C
0.666667 0.000000 0.000000 C
0.666667 0.666667 0.500000 C
0.333333 0.000000 0.833333 C
0.000000 0.333333 0.166667 C
0.333333 0.000000 0.500000 C
0.000000 0.333333 0.833333 C
0.666667 0.666667 0.166667 C
0.000000 0.333333 0.500000 C
0.666667 0.666667 0.833333 C
0.333333 0.000000 0.166667 C
0.666667 0.666667 0.333333 C
0.333333 0.000000 0.666667 C
0.000000 0.333333 0.000000 C
0.000000 0.333333 0.333333 C
0.666667 0.666667 0.666667 C
0.333333 0.000000 0.000000 C
0.333333 0.000000 0.333333 C
0.000000 0.333333 0.666667 C
0.666667 0.666667 0.000000 C
0.000000 0.000000 0.416670 C
0.000000 0.000000 0.750003 C
0.000000 0.000000 0.083337 C
0.000000 0.000000 0.583330 C
0.000000 0.000000 0.916663 C
0.000000 0.000000 0.249997 C
