Li15 Co30 O60
1.0
2.780000 0.000000 0.000000
-1.390000 2.407551 0.000000
0.000000 0.000000 129.750000
Li Co O
   6  30  60
direct
0.666670 0.333330 0.933330 Li
0.333330 0.666670 0.066670 Li
0.333337 0.666663 0.266663 Li
0.999997 0.000003 0.400003 Li
0.000003 0.999997 0.599997 Li
0.666663 0.333337 0.733337 Li
0.000000 0.000000 0.884000 Co
0.000000 0.000000 0.116000 Co
0.666667 0.333333 0.217333 Co
0.666667 0.333333 0.449333 Co
0.333333 0.666667 0.550667 Co
0.333333 0.666667 0.782667 Co
0.000000 0.000000 0.716000 Co
0.000000 0.000000 0.284000 Co
0.666667 0.333333 0.049333 Co
0.666667 0.333333 0.617333 Co
0.333333 0.666667 0.382667 Co
0.333333 0.666667 0.950667 Co
0.666670 0.333330 0.017330 Co
0.333330 0.666670 0.982670 Co
0.333337 0.666663 0.350663 Co
0.999997 0.000003 0.316003 Co
0.000003 0.999997 0.683997 Co
0.666663 0.333337 0.649337 Co
0.666670 0.333330 0.849330 Co
0.333330 0.666670 0.150670 Co
0.333337 0.666663 0.182663 Co
0.999997 0.000003 0.484003 Co
0.000003 0.999997 0.515997 Co
0.666663 0.333337 0.817337 Co
0.000000 0.000000 0.084000 Co
0.000000 0.000000 0.916000 Co
0.666667 0.333333 0.417333 Co
0.666667 0.333333 0.249333 Co
0.333333 0.666667 0.750667 Co
0.333333 0.666667 0.582667 Co
0.000000 0.000000 0.858000 O
0.000000 0.000000 0.142000 O
0.666667 0.333333 0.191333 O
0.666667 0.333333 0.475333 O
0.333333 0.666667 0.524667 O
0.333333 0.666667 0.808667 O
0.000000 0.000000 0.742000 O
0.000000 0.000000 0.258000 O
0.666667 0.333333 0.075333 O
0.666667 0.333333 0.591333 O
0.333333 0.666667 0.408667 O
0.333333 0.666667 0.924667 O
0.666670 0.333330 0.991330 O
0.333330 0.666670 0.008670 O
0.333337 0.666663 0.324663 O
0.999997 0.000003 0.342003 O
0.000003 0.999997 0.657997 O
0.666663 0.333337 0.675337 O
0.666670 0.333330 0.875330 O
0.333330 0.666670 0.124670 O
0.333337 0.666663 0.208663 O
0.999997 0.000003 0.458003 O
0.000003 0.999997 0.541997 O
0.666663 0.333337 0.791337 O
0.000000 0.000000 0.058000 O
0.000000 0.000000 0.942000 O
0.666667 0.333333 0.391333 O
0.666667 0.333333 0.275333 O
0.333333 0.666667 0.724667 O
0.333333 0.666667 0.608667 O
0.000000 0.000000 0.824000 O
0.000000 0.000000 0.176000 O
0.666667 0.333333 0.157333 O
0.666667 0.333333 0.509333 O
0.333333 0.666667 0.490667 O
0.333333 0.666667 0.842667 O
0.000000 0.000000 0.776000 O
0.000000 0.000000 0.224000 O
0.666667 0.333333 0.109333 O
0.666667 0.333333 0.557333 O
0.333333 0.666667 0.442667 O
0.333333 0.666667 0.890667 O
0.666670 0.333330 0.957330 O
0.333330 0.666670 0.042670 O
0.333337 0.666663 0.290663 O
0.999997 0.000003 0.376003 O
0.000003 0.999997 0.623997 O
0.666663 0.333337 0.709337 O
0.666670 0.333330 0.909330 O
0.333330 0.666670 0.090670 O
0.333337 0.666663 0.242663 O
0.999997 0.000003 0.424003 O
0.000003 0.999997 0.575997 O
0.666663 0.333337 0.757337 O
0.000000 0.000000 0.024000 O
0.000000 0.000000 0.976000 O
0.666667 0.333333 0.357333 O
0.666667 0.333333 0.309333 O
0.333333 0.666667 0.690667 O
0.333333 0.666667 0.642667 O
