Li18 C108
1.0
7.446952 0.000000 0.000000
-3.723476 6.449250 0.000000
0.000000 0.000000 21.599998
Li C
   6  108
direct
0.666667 0.333333 0.254630 Li
0.333333 0.666667 0.587963 Li
0.000000 0.000000 0.921297 Li
0.333333 0.666667 0.254630 Li
0.000000 0.000000 0.587963 Li
0.666667 0.333333 0.921297 Li
0.111120 0.888890 0.000000 C
0.111110 0.222230 0.000000 C
0.777770 0.888880 0.000000 C
0.777787 0.222223 0.333333 C
0.777777 0.555563 0.333333 C
0.444437 0.222213 0.333333 C
0.444453 0.555557 0.666667 C
0.444443 0.888897 0.666667 C
0.111103 0.555547 0.666667 C
0.777780 0.555560 0.000000 C
0.444440 0.222220 0.000000 C
0.777780 0.222220 0.000000 C
0.444447 0.888893 0.333333 C
0.111107 0.555553 0.333333 C
0.444447 0.555553 0.333333 C
0.111113 0.222227 0.666667 C
0.777773 0.888887 0.666667 C
0.111113 0.888887 0.666667 C
0.111110 0.555550 0.000000 C
0.444450 0.555560 0.000000 C
0.444440 0.888890 0.000000 C
0.777777 0.888883 0.333333 C
0.111117 0.888893 0.333333 C
0.111107 0.222223 0.333333 C
0.444443 0.222217 0.666667 C
0.777783 0.222227 0.666667 C
0.777773 0.555557 0.666667 C
0.333333 0.000000 0.000000 C
0.000000 0.333333 0.000000 C
0.666667 0.666667 0.000000 C
0.000000 0.333333 0.333333 C
0.666667 0.666667 0.333333 C
0.333333 0.000000 0.333333 C
0.666667 0.666667 0.666667 C
0.333333 0.000000 0.666667 C
0.000000 0.333333 0.666667 C
0.000000 0.000000 0.000000 C
0.666667 0.333333 0.333333 C
0.333333 0.666667 0.666667 C
0.333333 0.666667 0.000000 C
0.000000 0.000000 0.333333 C
0.666667 0.333333 0.666667 C
0.666667 0.333333 0.000000 C
0.333333 0.666667 0.333333 C
0.000000 0.000000 0.666667 C
0.777780 0.888890 0.166670 C
0.111110 0.888890 0.166670 C
0.111110 0.222220 0.166670 C
0.444447 0.222223 0.500003 C
0.777777 0.222223 0.500003 C
0.777777 0.555553 0.500003 C
0.111113 0.555557 0.833337 C
0.444443 0.555557 0.833337 C
0.444443 0.888887 0.833337 C
0.777780 0.222220 0.166670 C
0.777780 0.555560 0.166670 C
0.444440 0.222220 0.166670 C
0.444447 0.555553 0.500003 C
0.444447 0.888893 0.500003 C
0.111107 0.555553 0.500003 C
0.111113 0.888887 0.833337 C
0.111113 0.222227 0.833337 C
0.777773 0.888887 0.833337 C
0.444440 0.888890 0.166670 C
0.111110 0.555550 0.166670 C
0.444450 0.555560 0.166670 C
0.111107 0.222223 0.500003 C
0.777777 0.888883 0.500003 C
0.111117 0.888893 0.500003 C
0.777773 0.555557 0.833337 C
0.444443 0.222217 0.833337 C
0.777783 0.222227 0.833337 C
0.222220 0.111100 0.166670 C
0.888900 0.111120 0.166670 C
0.888880 0.777780 0.166670 C
0.888887 0.444433 0.500003 C
0.555567 0.444453 0.500003 C
0.555547 0.111113 0.500003 C
0.555553 0.777767 0.833337 C
0.222233 0.777787 0.833337 C
0.222213 0.444447 0.833337 C
0.555570 0.444450 0.166670 C
0.555550 0.111120 0.166670 C
0.888880 0.444430 0.166670 C
0.222237 0.777783 0.500003 C
0.222217 0.444453 0.500003 C
0.555547 0.777763 0.500003 C
0.888903 0.111117 0.833337 C
0.888883 0.777787 0.833337 C
0.222213 0.111097 0.833337 C
0.222220 0.444450 0.166670 C
0.555550 0.777770 0.166670 C
0.222230 0.777780 0.166670 C
0.888887 0.777783 0.500003 C
0.222217 0.111103 0.500003 C
0.888897 0.111113 0.500003 C
0.555553 0.111117 0.833337 C
0.888883 0.444437 0.833337 C
0.555563 0.444447 0.833337 C
0.000000 0.666667 0.000000 C
0.333333 0.333333 0.000000 C
0.666667 0.000000 0.000000 C
0.666667 0.000000 0.333333 C
0.000000 0.666667 0.333333 C
0.333333 0.333333 0.333333 C
0.333333 0.333333 0.666667 C
0.666667 0.000000 0.666667 C
0.000000 0.666667 0.666667 C
