Li8 C48
1.0
8.646587 0.000000 0.000000
-4.323293 7.488164 0.000000
0.000000 0.000000 7.490736
Li C
   2  48
direct
0.000000 0.000000 0.000000 Li
0.000000 0.000000 0.500000 Li
0.500000 0.666780 0.250000 C
0.333220 0.833220 0.250000 C
0.166780 0.500000 0.250000 C
0.333220 0.500000 0.750000 C
0.166780 0.666780 0.750000 C
0.500000 0.833220 0.750000 C
0.333220 0.333220 0.250000 C
0.666780 0.000000 0.250000 C
0.000000 0.666780 0.250000 C
0.666780 0.666780 0.750000 C
0.000000 0.333220 0.750000 C
0.333220 0.000000 0.750000 C
0.666780 0.500000 0.250000 C
0.500000 0.166780 0.250000 C
0.833220 0.333220 0.250000 C
0.500000 0.333220 0.750000 C
0.833220 0.500000 0.750000 C
0.666780 0.166780 0.750000 C
0.500000 0.333220 0.250000 C
0.666780 0.166780 0.250000 C
0.833220 0.500000 0.250000 C
0.666780 0.500000 0.750000 C
0.833220 0.333220 0.750000 C
0.500000 0.166780 0.750000 C
0.666780 0.666780 0.250000 C
0.333220 0.000000 0.250000 C
0.000000 0.333220 0.250000 C
0.333220 0.333220 0.750000 C
0.000000 0.666780 0.750000 C
0.666780 0.000000 0.750000 C
0.333220 0.500000 0.250000 C
0.500000 0.833220 0.250000 C
0.166780 0.666780 0.250000 C
0.500000 0.666780 0.750000 C
0.166780 0.500000 0.750000 C
0.333220 0.833220 0.750000 C
0.000000 0.166780 0.250000 C
0.833220 0.833220 0.250000 C
0.166780 0.000000 0.250000 C
0.833220 0.000000 0.750000 C
0.166780 0.166780 0.750000 C
0.000000 0.833220 0.750000 C
0.000000 0.833220 0.250000 C
0.166780 0.166780 0.250000 C
0.833220 0.000000 0.250000 C
0.166780 0.000000 0.750000 C
0.833220 0.833220 0.750000 C
0.000000 0.166780 0.750000 C
