Li36 C216
1.0
7.446952 0.000000 0.000000
-3.723476 6.449250 0.000000
0.000000 0.000000 43.199997
Li C
   12  216
direct
0.666667 0.333333 0.872690 Li
0.333333 0.666667 0.206023 Li
0.000000 0.000000 0.539357 Li
0.000000 0.333333 0.293980 Li
0.666667 0.666667 0.293980 Li
0.333333 0.000000 0.293980 Li
0.666667 0.666667 0.627313 Li
0.333333 0.000000 0.627313 Li
0.000000 0.333333 0.627313 Li
0.333333 0.000000 0.960647 Li
0.000000 0.333333 0.960647 Li
0.666667 0.666667 0.960647 Li
0.888890 0.111110 0.000000 C
0.888890 0.777780 0.000000 C
0.222220 0.111110 0.000000 C
0.555557 0.444443 0.333333 C
0.555557 0.111113 0.333333 C
0.888887 0.444443 0.333333 C
0.222223 0.777777 0.666667 C
0.222223 0.444447 0.666667 C
0.555553 0.777777 0.666667 C
0.555560 0.111120 0.000000 C
0.888880 0.444440 0.000000 C
0.555560 0.444440 0.000000 C
0.222227 0.444453 0.333333 C
0.555547 0.777773 0.333333 C
0.222227 0.777773 0.333333 C
0.888893 0.777787 0.666667 C
0.222213 0.111107 0.666667 C
0.888893 0.111107 0.666667 C
0.555550 0.777780 0.000000 C
0.222220 0.777770 0.000000 C
0.222230 0.444450 0.000000 C
0.222217 0.111113 0.333333 C
0.888887 0.111103 0.333333 C
0.888897 0.777783 0.333333 C
0.888883 0.444447 0.666667 C
0.555553 0.444437 0.666667 C
0.555563 0.111117 0.666667 C
0.888890 0.111110 0.166670 C
0.888890 0.777780 0.166670 C
0.222220 0.111110 0.166670 C
0.555557 0.444443 0.500003 C
0.555557 0.111113 0.500003 C
0.888887 0.444443 0.500003 C
0.222223 0.777777 0.833337 C
0.222223 0.444447 0.833337 C
0.555553 0.777777 0.833337 C
0.888890 0.111110 0.500000 C
0.888890 0.777780 0.500000 C
0.222220 0.111110 0.500000 C
0.555557 0.444443 0.833333 C
0.555557 0.111113 0.833333 C
0.888887 0.444443 0.833333 C
0.222223 0.777777 0.166667 C
0.222223 0.444447 0.166667 C
0.555553 0.777777 0.166667 C
0.888890 0.111110 0.833330 C
0.888890 0.777780 0.833330 C
0.222220 0.111110 0.833330 C
0.555557 0.444443 0.166663 C
0.555557 0.111113 0.166663 C
0.888887 0.444443 0.166663 C
0.222223 0.777777 0.499997 C
0.222223 0.444447 0.499997 C
0.555553 0.777777 0.499997 C
0.000000 0.000000 0.000000 C
0.666667 0.333333 0.333333 C
0.333333 0.666667 0.666667 C
0.666667 0.333333 0.000000 C
0.333333 0.666667 0.333333 C
0.000000 0.000000 0.666667 C
0.333333 0.666667 0.000000 C
0.000000 0.000000 0.333333 C
0.666667 0.333333 0.666667 C
0.000000 0.333333 0.000000 C
0.666667 0.666667 0.000000 C
0.333333 0.000000 0.000000 C
0.666667 0.666667 0.333333 C
0.333333 0.000000 0.333333 C
0.000000 0.333333 0.333333 C
0.333333 0.000000 0.666667 C
0.000000 0.333333 0.666667 C
0.666667 0.666667 0.666667 C
0.000000 0.000000 0.166670 C
0.666667 0.333333 0.500003 C
0.333333 0.666667 0.833337 C
0.000000 0.000000 0.500000 C
0.666667 0.333333 0.833333 C
0.333333 0.666667 0.166667 C
0.000000 0.000000 0.833330 C
0.666667 0.333333 0.166663 C
0.333333 0.666667 0.499997 C
0.000000 0.333333 0.166670 C
0.666667 0.666667 0.166670 C
0.333333 0.000000 0.166670 C
0.666667 0.666667 0.500003 C
0.333333 0.000000 0.500003 C
0.000000 0.333333 0.500003 C
0.333333 0.000000 0.833337 C
0.000000 0.333333 0.833337 C
0.666667 0.666667 0.833337 C
0.888890 0.444440 0.083330 C
0.555560 0.444450 0.083330 C
0.555550 0.111110 0.083330 C
0.555557 0.777773 0.416663 C
0.222227 0.777783 0.416663 C
0.222217 0.444443 0.416663 C
0.222223 0.111107 0.749997 C
0.888893 0.111117 0.749997 C
0.888883 0.777777 0.749997 C
0.222220 0.777780 0.083330 C
0.222220 0.444440 0.083330 C
0.555560 0.777780 0.083330 C
0.888887 0.111113 0.416663 C
0.888887 0.777773 0.416663 C
0.222227 0.111113 0.416663 C
0.555553 0.444447 0.749997 C
0.555553 0.111107 0.749997 C
0.888893 0.444447 0.749997 C
0.888890 0.777780 0.083330 C
0.222220 0.111110 0.083330 C
0.888890 0.111110 0.083330 C
0.555557 0.111113 0.416663 C
0.888887 0.444443 0.416663 C
0.555557 0.444443 0.416663 C
0.222223 0.444447 0.749997 C
0.555553 0.777777 0.749997 C
0.222223 0.777777 0.749997 C
0.888890 0.777780 0.916670 C
0.222220 0.111110 0.916670 C
0.888890 0.111110 0.916670 C
0.555557 0.111113 0.250003 C
0.888887 0.444443 0.250003 C
0.555557 0.444443 0.250003 C
0.222223 0.444447 0.583337 C
0.555553 0.777777 0.583337 C
0.222223 0.777777 0.583337 C
0.222220 0.777780 0.916670 C
0.222220 0.444440 0.916670 C
0.555560 0.777780 0.916670 C
0.888887 0.111113 0.250003 C
0.888887 0.777773 0.250003 C
0.222227 0.111113 0.250003 C
0.555553 0.444447 0.583337 C
0.555553 0.111107 0.583337 C
0.888893 0.444447 0.583337 C
0.888890 0.444440 0.916670 C
0.555560 0.444450 0.916670 C
0.555550 0.111110 0.916670 C
0.555557 0.777773 0.250003 C
0.222227 0.777783 0.250003 C
0.222217 0.444443 0.250003 C
0.222223 0.111107 0.583337 C
0.888893 0.111117 0.583337 C
0.888883 0.777777 0.583337 C
0.111100 0.222220 0.083330 C
0.777780 0.888880 0.083330 C
0.111120 0.888900 0.083330 C
0.777767 0.555553 0.416663 C
0.444447 0.222213 0.416663 C
0.777787 0.222233 0.416663 C
0.444433 0.888887 0.749997 C
0.111113 0.555547 0.749997 C
0.444453 0.555567 0.749997 C
0.444450 0.222220 0.083330 C
0.777780 0.222230 0.083330 C
0.777770 0.555550 0.083330 C
0.111117 0.555553 0.416663 C
0.444447 0.555563 0.416663 C
0.444437 0.888883 0.416663 C
0.777783 0.888887 0.749997 C
0.111113 0.888897 0.749997 C
0.111103 0.222217 0.749997 C
0.444450 0.555570 0.083330 C
0.444430 0.888880 0.083330 C
0.111120 0.555550 0.083330 C
0.111117 0.888903 0.416663 C
0.111097 0.222213 0.416663 C
0.777787 0.888883 0.416663 C
0.777783 0.222237 0.749997 C
0.777763 0.555547 0.749997 C
0.444453 0.222217 0.749997 C
0.111100 0.222220 0.916670 C
0.777780 0.888880 0.916670 C
0.111120 0.888900 0.916670 C
0.777767 0.555553 0.250003 C
0.444447 0.222213 0.250003 C
0.777787 0.222233 0.250003 C
0.444433 0.888887 0.583337 C
0.111113 0.555547 0.583337 C
0.444453 0.555567 0.583337 C
0.444450 0.555570 0.916670 C
0.444430 0.888880 0.916670 C
0.111120 0.555550 0.916670 C
0.111117 0.888903 0.250003 C
0.111097 0.222213 0.250003 C
0.777787 0.888883 0.250003 C
0.777783 0.222237 0.583337 C
0.777763 0.555547 0.583337 C
0.444453 0.222217 0.583337 C
0.444450 0.222220 0.916670 C
0.777780 0.222230 0.916670 C
0.777770 0.555550 0.916670 C
0.111117 0.555553 0.250003 C
0.444447 0.555563 0.250003 C
0.444437 0.888883 0.250003 C
0.777783 0.888887 0.583337 C
0.111113 0.888897 0.583337 C
0.111103 0.222217 0.583337 C
0.666667 0.000000 0.000000 C
0.000000 0.666667 0.000000 C
0.333333 0.333333 0.000000 C
0.333333 0.333333 0.333333 C
0.666667 0.000000 0.333333 C
0.000000 0.666667 0.333333 C
0.000000 0.666667 0.666667 C
0.333333 0.333333 0.666667 C
0.666667 0.000000 0.666667 C
0.666667 0.000000 0.166670 C
0.000000 0.666667 0.166670 C
0.333333 0.333333 0.166670 C
0.333333 0.333333 0.500003 C
0.666667 0.000000 0.500003 C
0.000000 0.666667 0.500003 C
0.000000 0.666667 0.833337 C
0.333333 0.333333 0.833337 C
0.666667 0.000000 0.833337 C
