Li21 Co21 O42
1.0
2.815600 0.000000 0.000000
-1.407800 2.438381 0.000000
0.000000 0.000000 98.379402
Li Co O
   12  21  42
direct
0.000000 0.000000 0.857140 Li
0.000000 0.000000 0.142860 Li
0.666667 0.333333 0.190473 Li
0.666667 0.333333 0.476193 Li
0.333333 0.666667 0.523807 Li
0.333333 0.666667 0.809527 Li
0.666670 0.333330 0.904760 Li
0.333330 0.666670 0.095240 Li
0.333337 0.666663 0.238093 Li
0.999997 0.000003 0.428573 Li
0.000003 0.999997 0.571427 Li
0.666663 0.333337 0.761907 Li
0.000000 0.000000 0.928570 Co
0.000000 0.000000 0.071430 Co
0.666667 0.333333 0.261903 Co
0.666667 0.333333 0.404763 Co
0.333333 0.666667 0.595237 Co
0.333333 0.666667 0.738097 Co
0.000000 0.000000 0.785710 Co
0.000000 0.000000 0.214290 Co
0.666667 0.333333 0.119043 Co
0.666667 0.333333 0.547623 Co
0.333333 0.666667 0.452377 Co
0.333333 0.666667 0.880957 Co
0.666670 0.333330 0.976190 Co
0.333330 0.666670 0.023810 Co
0.333337 0.666663 0.309523 Co
0.999997 0.000003 0.357143 Co
0.000003 0.999997 0.642857 Co
0.666663 0.333337 0.690477 Co
0.666670 0.333330 0.833330 Co
0.333330 0.666670 0.166670 Co
0.999997 0.000003 0.500003 Co
0.000000 0.000000 0.891380 O
0.000000 0.000000 0.108620 O
0.666667 0.333333 0.224713 O
0.666667 0.333333 0.441953 O
0.333333 0.666667 0.558047 O
0.333333 0.666667 0.775287 O
0.000000 0.000000 0.822900 O
0.000000 0.000000 0.177100 O
0.666667 0.333333 0.156233 O
0.666667 0.333333 0.510433 O
0.333333 0.666667 0.489567 O
0.333333 0.666667 0.843767 O
0.666670 0.333330 0.939000 O
0.333330 0.666670 0.061000 O
0.333337 0.666663 0.272333 O
0.999997 0.000003 0.394333 O
0.000003 0.999997 0.605667 O
0.666663 0.333337 0.727667 O
0.666670 0.333330 0.870520 O
0.333330 0.666670 0.129480 O
0.333337 0.666663 0.203853 O
0.999997 0.000003 0.462813 O
0.000003 0.999997 0.537187 O
0.666663 0.333337 0.796147 O
0.333330 0.666670 0.986620 O
0.666670 0.333330 0.013380 O
0.999997 0.000003 0.319953 O
0.333337 0.666663 0.346713 O
0.666663 0.333337 0.653287 O
0.000003 0.999997 0.680047 O
0.333330 0.666670 0.918140 O
0.666670 0.333330 0.081860 O
0.999997 0.000003 0.251473 O
0.333337 0.666663 0.415193 O
0.666663 0.333337 0.584807 O
0.000003 0.999997 0.748527 O
0.000000 0.000000 0.034240 O
0.000000 0.000000 0.965760 O
0.666667 0.333333 0.367573 O
0.666667 0.333333 0.299093 O
0.333333 0.666667 0.700907 O
0.333333 0.666667 0.632427 O
