Li3 Co6 O12
1.0
2.780000 0.000000 0.000000
-1.390000 2.407551 0.000000
0.000000 0.000000 25.950001
Li Co O
   2  6  12
direct
0.000000 0.000000 0.000000 Li
0.666670 0.333330 0.333330 Li
0.333330 0.666670 0.086670 Co
0.333330 0.666670 0.246670 Co
0.000000 0.000000 0.420000 Co
0.000000 0.000000 0.580000 Co
0.666670 0.333330 0.753330 Co
0.666670 0.333330 0.913330 Co
0.333330 0.666670 0.956670 O
0.333330 0.666670 0.376670 O
0.000000 0.000000 0.290000 O
0.000000 0.000000 0.710000 O
0.666670 0.333330 0.623330 O
0.666670 0.333330 0.043330 O
0.333330 0.666670 0.786670 O
0.333330 0.666670 0.546670 O
0.000000 0.000000 0.120000 O
0.000000 0.000000 0.880000 O
0.666670 0.333330 0.453330 O
0.666670 0.333330 0.213330 O
