Li12 Co12 O24
1.0
28.108400 0.000000 4.876761
0.000000 2.815600 0.000000
0.000000 0.000000 4.876762
Li Co O
   6  12  24
direct
0.333330 0.500000 0.500000 Li
0.666670 0.500000 0.500000 Li
0.833330 0.000000 0.500000 Li
0.166670 0.000000 0.500000 Li
0.000000 0.000000 0.000000 Li
0.500000 0.500000 0.000000 Li
0.083330 0.000000 0.250000 Co
0.916670 0.000000 0.750000 Co
0.583330 0.500000 0.250000 Co
0.416670 0.500000 0.750000 Co
0.083330 0.500000 0.750000 Co
0.916670 0.500000 0.250000 Co
0.583330 0.000000 0.750000 Co
0.416670 0.000000 0.250000 Co
0.750000 0.000000 0.250000 Co
0.250000 0.000000 0.750000 Co
0.250000 0.500000 0.250000 Co
0.750000 0.500000 0.750000 Co
0.213490 0.000000 0.119840 O
0.786510 0.000000 0.880160 O
0.713490 0.500000 0.119840 O
0.286510 0.500000 0.880160 O
0.213490 0.500000 0.619840 O
0.786510 0.500000 0.380160 O
0.713490 0.000000 0.619840 O
0.286510 0.000000 0.380160 O
0.453170 0.500000 0.380160 O
0.546830 0.500000 0.619840 O
0.953170 0.000000 0.380160 O
0.046830 0.000000 0.619840 O
0.453170 0.000000 0.880160 O
0.546830 0.000000 0.119840 O
0.953170 0.500000 0.880160 O
0.046830 0.500000 0.119840 O
0.880160 0.000000 0.119840 O
0.119840 0.000000 0.880160 O
0.380160 0.500000 0.119840 O
0.619840 0.500000 0.880160 O
0.880160 0.500000 0.619840 O
0.119840 0.500000 0.380160 O
0.380160 0.000000 0.619840 O
0.619840 0.000000 0.380160 O
