Li8 Co8 O16
1.0
4.804979 0.000000 -0.833656
0.000000 2.815600 0.000000
0.000000 0.000000 19.018879
Li Co O
   3  8  16
direct
0.500000 0.500000 0.250000 Li
0.500000 0.500000 0.750000 Li
0.500000 0.000000 0.000000 Li
0.750000 0.000000 0.375000 Co
0.250000 0.000000 0.625000 Co
0.250000 0.500000 0.375000 Co
0.750000 0.500000 0.625000 Co
0.750000 0.500000 0.125000 Co
0.250000 0.500000 0.875000 Co
0.250000 0.000000 0.125000 Co
0.750000 0.000000 0.875000 Co
0.880160 0.000000 0.570240 O
0.119840 0.000000 0.429760 O
0.380160 0.500000 0.570240 O
0.619840 0.500000 0.429760 O
0.619840 0.500000 0.929760 O
0.380160 0.500000 0.070240 O
0.119840 0.000000 0.929760 O
0.880160 0.000000 0.070240 O
0.380160 0.000000 0.320240 O
0.619840 0.000000 0.679760 O
0.880160 0.500000 0.320240 O
0.119840 0.500000 0.679760 O
0.380160 0.000000 0.820240 O
0.619840 0.000000 0.179760 O
0.880160 0.500000 0.820240 O
0.119840 0.500000 0.179760 O
