Li8 Co8 O16
1.0
2.402489 0.000000 -5.171548
0.000000 2.815600 0.000000
0.000000 0.000000 38.037758
Li Co O
   3  8  16
direct
0.000000 0.500000 0.750000 Li
0.000000 0.500000 0.250000 Li
0.000000 0.500000 0.000000 Li
0.500000 0.000000 0.625000 Co
0.500000 0.000000 0.375000 Co
0.500000 0.000000 0.875000 Co
0.500000 0.000000 0.125000 Co
0.500000 0.500000 0.500000 Co
0.500000 0.500000 0.750000 Co
0.500000 0.500000 0.250000 Co
0.500000 0.500000 0.000000 Co
0.760320 0.000000 0.755160 O
0.239680 0.000000 0.244840 O
0.760320 0.000000 0.005160 O
0.239680 0.000000 0.994840 O
0.239680 0.000000 0.744840 O
0.760320 0.000000 0.255160 O
0.760320 0.500000 0.630160 O
0.239680 0.500000 0.369840 O
0.760320 0.500000 0.880160 O
0.239680 0.500000 0.119840 O
0.239680 0.500000 0.619840 O
0.760320 0.500000 0.380160 O
0.239680 0.500000 0.869840 O
0.760320 0.500000 0.130160 O
0.760320 0.000000 0.505160 O
0.239680 0.000000 0.494840 O
