Li24 Co48 O96
1.0
5.560000 0.000000 0.000000
-2.780000 4.815101 0.000000
0.000000 0.000000 51.900002
Li Co O
   18  48  96
direct
0.000000 0.500000 0.000000 Li
0.500000 0.500000 0.000000 Li
0.500000 0.000000 0.000000 Li
0.500000 0.000000 0.500000 Li
0.500000 0.500000 0.500000 Li
0.000000 0.500000 0.500000 Li
0.666667 0.833333 0.333333 Li
0.166667 0.833333 0.333333 Li
0.166667 0.333333 0.333333 Li
0.166667 0.333333 0.833333 Li
0.166667 0.833333 0.833333 Li
0.666667 0.833333 0.833333 Li
0.333333 0.166667 0.666667 Li
0.833333 0.166667 0.666667 Li
0.833333 0.666667 0.666667 Li
0.833333 0.666667 0.166667 Li
0.833333 0.166667 0.166667 Li
0.333333 0.166667 0.166667 Li
0.000000 0.500000 0.210000 Co
0.500000 0.500000 0.210000 Co
0.500000 0.000000 0.210000 Co
0.500000 0.000000 0.290000 Co
0.500000 0.500000 0.290000 Co
0.000000 0.500000 0.290000 Co
0.000000 0.500000 0.790000 Co
0.500000 0.500000 0.790000 Co
0.500000 0.000000 0.790000 Co
0.500000 0.000000 0.710000 Co
0.500000 0.500000 0.710000 Co
0.000000 0.500000 0.710000 Co
0.666667 0.833333 0.543333 Co
0.166667 0.833333 0.543333 Co
0.166667 0.333333 0.543333 Co
0.166667 0.333333 0.623333 Co
0.166667 0.833333 0.623333 Co
0.666667 0.833333 0.623333 Co
0.666667 0.833333 0.123333 Co
0.166667 0.833333 0.123333 Co
0.166667 0.333333 0.123333 Co
0.166667 0.333333 0.043333 Co
0.166667 0.833333 0.043333 Co
0.666667 0.833333 0.043333 Co
0.333333 0.166667 0.876667 Co
0.833333 0.166667 0.876667 Co
0.833333 0.666667 0.876667 Co
0.833333 0.666667 0.956667 Co
0.833333 0.166667 0.956667 Co
0.333333 0.166667 0.956667 Co
0.333333 0.166667 0.456667 Co
0.833333 0.166667 0.456667 Co
0.833333 0.666667 0.456667 Co
0.833333 0.666667 0.376667 Co
0.833333 0.166667 0.376667 Co
0.333333 0.166667 0.376667 Co
0.666670 0.333330 0.543330 Co
0.333330 0.666670 0.956670 Co
0.333330 0.666670 0.456670 Co
0.666670 0.333330 0.043330 Co
0.333337 0.666663 0.876663 Co
0.999997 0.000003 0.290003 Co
0.999997 0.000003 0.790003 Co
0.333337 0.666663 0.376663 Co
0.000003 0.999997 0.209997 Co
0.666663 0.333337 0.623337 Co
0.666663 0.333337 0.123337 Co
0.000003 0.999997 0.709997 Co
0.000000 0.500000 0.145000 O
0.500000 0.500000 0.145000 O
0.500000 0.000000 0.145000 O
0.500000 0.000000 0.355000 O
0.500000 0.500000 0.355000 O
0.000000 0.500000 0.355000 O
0.000000 0.500000 0.855000 O
0.500000 0.500000 0.855000 O
0.500000 0.000000 0.855000 O
0.500000 0.000000 0.645000 O
0.500000 0.500000 0.645000 O
0.000000 0.500000 0.645000 O
0.666667 0.833333 0.478333 O
0.166667 0.833333 0.478333 O
0.166667 0.333333 0.478333 O
0.166667 0.333333 0.688333 O
0.166667 0.833333 0.688333 O
0.666667 0.833333 0.688333 O
0.666667 0.833333 0.188333 O
0.166667 0.833333 0.188333 O
0.166667 0.333333 0.188333 O
0.166667 0.333333 0.978333 O
0.166667 0.833333 0.978333 O
0.666667 0.833333 0.978333 O
0.333333 0.166667 0.811667 O
0.833333 0.166667 0.811667 O
0.833333 0.666667 0.811667 O
0.833333 0.666667 0.021667 O
0.833333 0.166667 0.021667 O
0.333333 0.166667 0.021667 O
0.333333 0.166667 0.521667 O
0.833333 0.166667 0.521667 O
0.833333 0.666667 0.521667 O
0.833333 0.666667 0.311667 O
0.833333 0.166667 0.311667 O
0.333333 0.166667 0.311667 O
0.666670 0.333330 0.478330 O
0.333330 0.666670 0.021670 O
0.333330 0.666670 0.521670 O
0.666670 0.333330 0.978330 O
0.333337 0.666663 0.811663 O
0.999997 0.000003 0.355003 O
0.999997 0.000003 0.855003 O
0.333337 0.666663 0.311663 O
0.000003 0.999997 0.144997 O
0.666663 0.333337 0.688337 O
0.666663 0.333337 0.188337 O
0.000003 0.999997 0.644997 O
0.000000 0.500000 0.060000 O
0.500000 0.500000 0.060000 O
0.500000 0.000000 0.060000 O
0.500000 0.000000 0.440000 O
0.500000 0.500000 0.440000 O
0.000000 0.500000 0.440000 O
0.000000 0.500000 0.940000 O
0.500000 0.500000 0.940000 O
0.500000 0.000000 0.940000 O
0.500000 0.000000 0.560000 O
0.500000 0.500000 0.560000 O
0.000000 0.500000 0.560000 O
0.666667 0.833333 0.393333 O
0.166667 0.833333 0.393333 O
0.166667 0.333333 0.393333 O
0.166667 0.333333 0.773333 O
0.166667 0.833333 0.773333 O
0.666667 0.833333 0.773333 O
0.666667 0.833333 0.273333 O
0.166667 0.833333 0.273333 O
0.166667 0.333333 0.273333 O
0.166667 0.333333 0.893333 O
0.166667 0.833333 0.893333 O
0.666667 0.833333 0.893333 O
0.333333 0.166667 0.726667 O
0.833333 0.166667 0.726667 O
0.833333 0.666667 0.726667 O
0.833333 0.666667 0.106667 O
0.833333 0.166667 0.106667 O
0.333333 0.166667 0.106667 O
0.333333 0.166667 0.606667 O
0.833333 0.166667 0.606667 O
0.833333 0.666667 0.606667 O
0.833333 0.666667 0.226667 O
0.833333 0.166667 0.226667 O
0.333333 0.166667 0.226667 O
0.666670 0.333330 0.393330 O
0.333330 0.666670 0.106670 O
0.333330 0.666670 0.606670 O
0.666670 0.333330 0.893330 O
0.333337 0.666663 0.726663 O
0.999997 0.000003 0.440003 O
0.999997 0.000003 0.940003 O
0.333337 0.666663 0.226663 O
0.000003 0.999997 0.059997 O
0.666663 0.333337 0.773337 O
0.666663 0.333337 0.273337 O
0.000003 0.999997 0.559997 O
