Li6 Co6 O12
1.0
2.815600 0.000000 0.000000
-1.407800 2.438381 0.000000
0.000000 0.000000 28.108400
Li Co O
   2  6  12
direct
0.333330 0.666670 0.666670 Li
0.333330 0.666670 0.166670 Li
0.333330 0.666670 0.916670 Co
0.333330 0.666670 0.416670 Co
0.666670 0.333330 0.083330 Co
0.666670 0.333330 0.583330 Co
0.000000 0.000000 0.250000 Co
0.000000 0.000000 0.750000 Co
0.333330 0.666670 0.786510 O
0.333330 0.666670 0.286510 O
0.333330 0.666670 0.546830 O
0.333330 0.666670 0.046830 O
0.666670 0.333330 0.953170 O
0.666670 0.333330 0.453170 O
0.666670 0.333330 0.713490 O
0.666670 0.333330 0.213490 O
0.000000 0.000000 0.119840 O
0.000000 0.000000 0.619840 O
0.000000 0.000000 0.880160 O
0.000000 0.000000 0.380160 O
