Li15 Co30 O60
1.0
2.780000 0.000000 0.000000
-1.390000 2.407551 0.000000
0.000000 0.000000 129.750000
Li Co O
   6  30  60
direct
0.666670 0.333330 0.533330 Li
0.333337 0.666663 0.866663 Li
0.000003 0.999997 0.199997 Li
0.000000 0.000000 0.000000 Li
0.666667 0.333333 0.333333 Li
0.333333 0.666667 0.666667 Li
0.000000 0.000000 0.484000 Co
0.666667 0.333333 0.817333 Co
0.333333 0.666667 0.150667 Co
0.000000 0.000000 0.316000 Co
0.666667 0.333333 0.649333 Co
0.333333 0.666667 0.982667 Co
0.333330 0.666670 0.550670 Co
0.999997 0.000003 0.884003 Co
0.666663 0.333337 0.217337 Co
0.333330 0.666670 0.382670 Co
0.999997 0.000003 0.716003 Co
0.666663 0.333337 0.049337 Co
0.666670 0.333330 0.617330 Co
0.333337 0.666663 0.950663 Co
0.000003 0.999997 0.283997 Co
0.666670 0.333330 0.449330 Co
0.333337 0.666663 0.782663 Co
0.000003 0.999997 0.115997 Co
0.000000 0.000000 0.684000 Co
0.666667 0.333333 0.017333 Co
0.333333 0.666667 0.350667 Co
0.000000 0.000000 0.084000 Co
0.666667 0.333333 0.417333 Co
0.333333 0.666667 0.750667 Co
0.000000 0.000000 0.516000 Co
0.666667 0.333333 0.849333 Co
0.333333 0.666667 0.182667 Co
0.333330 0.666670 0.582670 Co
0.999997 0.000003 0.916003 Co
0.666663 0.333337 0.249337 Co
0.000000 0.000000 0.458000 O
0.666667 0.333333 0.791333 O
0.333333 0.666667 0.124667 O
0.000000 0.000000 0.342000 O
0.666667 0.333333 0.675333 O
0.333333 0.666667 0.008667 O
0.333330 0.666670 0.524670 O
0.999997 0.000003 0.858003 O
0.666663 0.333337 0.191337 O
0.333330 0.666670 0.408670 O
0.999997 0.000003 0.742003 O
0.666663 0.333337 0.075337 O
0.666670 0.333330 0.591330 O
0.333337 0.666663 0.924663 O
0.000003 0.999997 0.257997 O
0.666670 0.333330 0.475330 O
0.333337 0.666663 0.808663 O
0.000003 0.999997 0.141997 O
0.000000 0.000000 0.658000 O
0.666667 0.333333 0.991333 O
0.333333 0.666667 0.324667 O
0.000000 0.000000 0.058000 O
0.666667 0.333333 0.391333 O
0.333333 0.666667 0.724667 O
0.000000 0.000000 0.542000 O
0.666667 0.333333 0.875333 O
0.333333 0.666667 0.208667 O
0.333330 0.666670 0.608670 O
0.999997 0.000003 0.942003 O
0.666663 0.333337 0.275337 O
0.000000 0.000000 0.424000 O
0.666667 0.333333 0.757333 O
0.333333 0.666667 0.090667 O
0.000000 0.000000 0.376000 O
0.666667 0.333333 0.709333 O
0.333333 0.666667 0.042667 O
0.333330 0.666670 0.490670 O
0.999997 0.000003 0.824003 O
0.666663 0.333337 0.157337 O
0.333330 0.666670 0.442670 O
0.999997 0.000003 0.776003 O
0.666663 0.333337 0.109337 O
0.666670 0.333330 0.557330 O
0.333337 0.666663 0.890663 O
0.000003 0.999997 0.223997 O
0.666670 0.333330 0.509330 O
0.333337 0.666663 0.842663 O
0.000003 0.999997 0.175997 O
0.000000 0.000000 0.624000 O
0.666667 0.333333 0.957333 O
0.333333 0.666667 0.290667 O
0.000000 0.000000 0.024000 O
0.666667 0.333333 0.357333 O
0.333333 0.666667 0.690667 O
0.000000 0.000000 0.576000 O
0.666667 0.333333 0.909333 O
0.333333 0.666667 0.242667 O
0.333330 0.666670 0.642670 O
0.999997 0.000003 0.976003 O
0.666663 0.333337 0.309337 O
