Li6 Co6 O12
1.0
1.625592 0.000000 -9.369465
0.000000 2.815600 0.000000
0.000000 0.000000 42.162601
Li Co O
   3  6  12
direct
0.000000 0.000000 0.333330 Li
0.000000 0.000000 0.666670 Li
0.000000 0.000000 0.000000 Li
0.000000 0.000000 0.500000 Co
0.000000 0.000000 0.166670 Co
0.000000 0.000000 0.833330 Co
0.500000 0.500000 0.500000 Co
0.500000 0.500000 0.166670 Co
0.500000 0.500000 0.833330 Co
0.000000 0.000000 0.413230 O
0.000000 0.000000 0.586770 O
0.000000 0.000000 0.253440 O
0.000000 0.000000 0.746560 O
0.500000 0.500000 0.413230 O
0.500000 0.500000 0.586770 O
0.500000 0.500000 0.253440 O
0.500000 0.500000 0.746560 O
0.500000 0.500000 0.079890 O
0.500000 0.500000 0.920110 O
0.000000 0.000000 0.079890 O
0.000000 0.000000 0.920110 O
