Li6 C36
1.0
4.323294 0.000000 0.000000
-2.161647 3.744082 0.000000
0.000000 0.000000 22.472206
Li C
   3  36
direct
0.000000 0.000000 0.000000 Li
0.000000 0.000000 0.666667 Li
0.000000 0.000000 0.333333 Li
0.000000 0.333550 0.916670 C
0.666450 0.666450 0.583337 C
0.333550 0.000000 0.250003 C
0.000000 0.666450 0.916670 C
0.333550 0.333550 0.583337 C
0.666450 0.000000 0.250003 C
0.333550 0.000000 0.749997 C
0.666450 0.666450 0.083330 C
0.000000 0.333550 0.416663 C
0.666450 0.000000 0.749997 C
0.333550 0.333550 0.083330 C
0.000000 0.666450 0.416663 C
0.666450 0.666450 0.916670 C
0.333550 0.000000 0.583337 C
0.000000 0.333550 0.250003 C
0.333550 0.333550 0.916670 C
0.666450 0.000000 0.583337 C
0.000000 0.666450 0.250003 C
0.666450 0.666450 0.749997 C
0.000000 0.333550 0.083330 C
0.333550 0.000000 0.416663 C
0.333550 0.333550 0.749997 C
0.000000 0.666450 0.083330 C
0.666450 0.000000 0.416663 C
0.333550 0.000000 0.916670 C
0.000000 0.333550 0.583337 C
0.666450 0.666450 0.250003 C
0.666450 0.000000 0.916670 C
0.000000 0.666450 0.583337 C
0.333550 0.333550 0.250003 C
0.000000 0.333550 0.749997 C
0.333550 0.000000 0.083330 C
0.666450 0.666450 0.416663 C
0.000000 0.666450 0.749997 C
0.666450 0.000000 0.083330 C
0.333550 0.333550 0.416663 C
