Li7 C42
1.0
11.438360 0.000000 0.000000
-5.719179 9.905911 0.000000
0.000000 0.000000 3.745368
Li C
   6  42
direct
0.142860 0.714290 0.000000 Li
0.285710 0.428570 0.000000 Li
0.571430 0.857140 0.000000 Li
0.857140 0.285710 0.000000 Li
0.714290 0.571430 0.000000 Li
0.428570 0.142860 0.000000 Li
0.095210 0.809590 0.500000 C
0.190410 0.285620 0.500000 C
0.714380 0.904790 0.500000 C
0.047560 0.571340 0.500000 C
0.428660 0.476220 0.500000 C
0.523780 0.952440 0.500000 C
0.285810 0.761940 0.500000 C
0.238060 0.523870 0.500000 C
0.476130 0.714190 0.500000 C
0.190510 0.618990 0.500000 C
0.381010 0.571520 0.500000 C
0.428480 0.809490 0.500000 C
0.238160 0.857240 0.500000 C
0.142760 0.380920 0.500000 C
0.619080 0.761840 0.500000 C
0.000000 0.666667 0.500000 C
0.333333 0.333333 0.500000 C
0.666667 0.000000 0.500000 C
0.761840 0.142760 0.500000 C
0.857240 0.619080 0.500000 C
0.380920 0.238160 0.500000 C
0.952350 0.095300 0.500000 C
0.904700 0.857050 0.500000 C
0.142950 0.047650 0.500000 C
0.571340 0.523780 0.500000 C
0.476220 0.047560 0.500000 C
0.952440 0.428660 0.500000 C
0.523870 0.285810 0.500000 C
0.714190 0.238060 0.500000 C
0.761940 0.476130 0.500000 C
0.809490 0.381010 0.500000 C
0.618990 0.428480 0.500000 C
0.571520 0.190510 0.500000 C
0.666667 0.666667 0.500000 C
0.333333 0.000000 0.500000 C
0.000000 0.333333 0.500000 C
0.047650 0.904700 0.500000 C
0.095300 0.142950 0.500000 C
0.857050 0.952350 0.500000 C
0.285620 0.095210 0.500000 C
0.904790 0.190410 0.500000 C
0.809590 0.714380 0.500000 C
