Li12 Co12 O24
1.0
1.329361 0.000000 -9.416062
0.000000 2.815600 0.000000
0.000000 0.000000 103.115402
Li Co O
   4  12  24
direct
0.333330 0.000000 0.416670 Li
0.666670 0.000000 0.583330 Li
0.833330 0.500000 0.416670 Li
0.166670 0.500000 0.583330 Li
0.166670 0.000000 0.833330 Co
0.833330 0.000000 0.166670 Co
0.666670 0.500000 0.833330 Co
0.333330 0.500000 0.166670 Co
0.166670 0.000000 0.333330 Co
0.833330 0.000000 0.666670 Co
0.666670 0.500000 0.333330 Co
0.333330 0.500000 0.666670 Co
0.500000 0.000000 0.500000 Co
0.000000 0.500000 0.500000 Co
0.000000 0.500000 0.000000 Co
0.500000 0.000000 0.000000 Co
0.079890 0.000000 0.789950 O
0.920110 0.000000 0.210050 O
0.579890 0.500000 0.789950 O
0.420110 0.500000 0.210050 O
0.746560 0.000000 0.123280 O
0.253440 0.000000 0.876720 O
0.246560 0.500000 0.123280 O
0.753440 0.500000 0.876720 O
0.253440 0.000000 0.376720 O
0.746560 0.000000 0.623280 O
0.753440 0.500000 0.376720 O
0.246560 0.500000 0.623280 O
0.920110 0.000000 0.710050 O
0.079890 0.000000 0.289950 O
0.420110 0.500000 0.710050 O
0.579890 0.500000 0.289950 O
0.413230 0.000000 0.456610 O
0.586770 0.000000 0.543390 O
0.913230 0.500000 0.456610 O
0.086770 0.500000 0.543390 O
0.913230 0.500000 0.956610 O
0.086770 0.500000 0.043390 O
0.413230 0.000000 0.956610 O
0.586770 0.000000 0.043390 O
