Li8 Co8 O16
1.0
1.625737 0.000000 -93.694668
0.000000 2.815600 0.000000
0.000000 0.000000 56.216801
Li Co O
   6  8  16
direct
0.000000 0.000000 0.750000 Li
0.000000 0.000000 0.250000 Li
0.500000 0.500000 0.750000 Li
0.500000 0.500000 0.250000 Li
0.500000 0.500000 0.000000 Li
0.000000 0.000000 0.000000 Li
0.000000 0.000000 0.875000 Co
0.000000 0.000000 0.125000 Co
0.500000 0.500000 0.875000 Co
0.500000 0.500000 0.125000 Co
0.000000 0.000000 0.625000 Co
0.000000 0.000000 0.375000 Co
0.500000 0.500000 0.625000 Co
0.500000 0.500000 0.375000 Co
0.000000 0.000000 0.809920 O
0.000000 0.000000 0.190080 O
0.500000 0.500000 0.809920 O
0.500000 0.500000 0.190080 O
0.000000 0.000000 0.690080 O
0.000000 0.000000 0.309920 O
0.500000 0.500000 0.690080 O
0.500000 0.500000 0.309920 O
0.500000 0.500000 0.059920 O
0.500000 0.500000 0.940080 O
0.000000 0.000000 0.059920 O
0.000000 0.000000 0.940080 O
0.000000 0.000000 0.559920 O
0.000000 0.000000 0.440080 O
0.500000 0.500000 0.559920 O
0.500000 0.500000 0.440080 O
