Li6 C36
1.0
4.323294 0.000000 0.000000
-2.161647 3.744082 0.000000
0.000000 0.000000 22.472206
Li C
   3  36
direct
0.000000 0.000000 0.833330 Li
0.000000 0.000000 0.166670 Li
0.000000 0.000000 0.500000 Li
0.000000 0.333550 0.916670 C
0.666450 0.666450 0.916670 C
0.333550 0.000000 0.916670 C
0.000000 0.666450 0.916670 C
0.333550 0.333550 0.916670 C
0.666450 0.000000 0.916670 C
0.000000 0.666450 0.083330 C
0.333550 0.333550 0.083330 C
0.666450 0.000000 0.083330 C
0.000000 0.333550 0.083330 C
0.666450 0.666450 0.083330 C
0.333550 0.000000 0.083330 C
0.333550 0.000000 0.750000 C
0.000000 0.333550 0.750000 C
0.666450 0.666450 0.750000 C
0.666450 0.000000 0.750000 C
0.000000 0.666450 0.750000 C
0.333550 0.333550 0.750000 C
0.666450 0.000000 0.250000 C
0.000000 0.666450 0.250000 C
0.333550 0.333550 0.250000 C
0.333550 0.000000 0.250000 C
0.000000 0.333550 0.250000 C
0.666450 0.666450 0.250000 C
0.000000 0.333550 0.416670 C
0.666450 0.666450 0.416670 C
0.333550 0.000000 0.416670 C
0.000000 0.666450 0.416670 C
0.333550 0.333550 0.416670 C
0.666450 0.000000 0.416670 C
0.000000 0.666450 0.583330 C
0.333550 0.333550 0.583330 C
0.666450 0.000000 0.583330 C
0.000000 0.333550 0.583330 C
0.666450 0.666450 0.583330 C
0.333550 0.000000 0.583330 C
