Li21 Co21 O42
1.0
2.815600 0.000000 0.000000
-1.407800 2.438381 0.000000
0.000000 0.000000 98.379402
Li Co O
   15  21  42
direct
0.000000 0.000000 0.142860 Li
0.666667 0.333333 0.476193 Li
0.333333 0.666667 0.809527 Li
0.666670 0.333330 0.190480 Li
0.333337 0.666663 0.523813 Li
0.000003 0.999997 0.857147 Li
0.333330 0.666670 0.238100 Li
0.999997 0.000003 0.571433 Li
0.666663 0.333337 0.904767 Li
0.000000 0.000000 0.428570 Li
0.666667 0.333333 0.761903 Li
0.333333 0.666667 0.095237 Li
0.000000 0.000000 0.000000 Li
0.666667 0.333333 0.333333 Li
0.333333 0.666667 0.666667 Li
0.000000 0.000000 0.214290 Co
0.666667 0.333333 0.547623 Co
0.333333 0.666667 0.880957 Co
0.000000 0.000000 0.071430 Co
0.666667 0.333333 0.404763 Co
0.333333 0.666667 0.738097 Co
0.666670 0.333330 0.261900 Co
0.333337 0.666663 0.595233 Co
0.000003 0.999997 0.928567 Co
0.666670 0.333330 0.119050 Co
0.333337 0.666663 0.452383 Co
0.000003 0.999997 0.785717 Co
0.333330 0.666670 0.309520 Co
0.999997 0.000003 0.642853 Co
0.666663 0.333337 0.976187 Co
0.333330 0.666670 0.166670 Co
0.999997 0.000003 0.500003 Co
0.666663 0.333337 0.833337 Co
0.000000 0.000000 0.357140 Co
0.666667 0.333333 0.690473 Co
0.333333 0.666667 0.023807 Co
0.000000 0.000000 0.177100 O
0.666667 0.333333 0.510433 O
0.333333 0.666667 0.843767 O
0.000000 0.000000 0.108620 O
0.666667 0.333333 0.441953 O
0.333333 0.666667 0.775287 O
0.666670 0.333330 0.224720 O
0.333337 0.666663 0.558053 O
0.000003 0.999997 0.891387 O
0.666670 0.333330 0.156240 O
0.333337 0.666663 0.489573 O
0.000003 0.999997 0.822907 O
0.333330 0.666670 0.272330 O
0.999997 0.000003 0.605663 O
0.666663 0.333337 0.938997 O
0.333330 0.666670 0.203860 O
0.999997 0.000003 0.537193 O
0.666663 0.333337 0.870527 O
0.000000 0.000000 0.319950 O
0.666667 0.333333 0.653283 O
0.333333 0.666667 0.986617 O
0.000000 0.000000 0.462810 O
0.666667 0.333333 0.796143 O
0.333333 0.666667 0.129477 O
0.000000 0.000000 0.748530 O
0.666667 0.333333 0.081863 O
0.333333 0.666667 0.415197 O
0.000000 0.000000 0.034240 O
0.666667 0.333333 0.367573 O
0.333333 0.666667 0.700907 O
0.000000 0.000000 0.251470 O
0.666667 0.333333 0.584803 O
0.333333 0.666667 0.918137 O
0.666670 0.333330 0.299090 O
0.333337 0.666663 0.632423 O
0.000003 0.999997 0.965757 O
0.333330 0.666670 0.346710 O
0.999997 0.000003 0.680043 O
0.666663 0.333337 0.013377 O
0.000000 0.000000 0.394330 O
0.666667 0.333333 0.727663 O
0.333333 0.666667 0.060997 O
