Li6 Co12 O24
1.0
2.780000 0.000000 0.000000
-1.390000 2.407551 0.000000
0.000000 0.000000 51.900002
Li Co O
   4  12  24
direct
0.333330 0.666670 0.583330 Li
0.000000 0.000000 0.750000 Li
0.666670 0.333330 0.916660 Li
0.333330 0.666670 0.083330 Li
0.666670 0.333330 0.626670 Co
0.666670 0.333330 0.206660 Co
0.333330 0.666670 0.793330 Co
0.333330 0.666670 0.373330 Co
0.000000 0.000000 0.960000 Co
0.000000 0.000000 0.540000 Co
0.666670 0.333330 0.126660 Co
0.666670 0.333330 0.706660 Co
0.333330 0.666670 0.293330 Co
0.333330 0.666670 0.873330 Co
0.000000 0.000000 0.460000 Co
0.000000 0.000000 0.040000 Co
0.666670 0.333330 0.561660 O
0.666670 0.333330 0.271660 O
0.333330 0.666670 0.728330 O
0.333330 0.666670 0.438330 O
0.000000 0.000000 0.895000 O
0.000000 0.000000 0.605000 O
0.666670 0.333330 0.061660 O
0.666670 0.333330 0.771670 O
0.333330 0.666670 0.228330 O
0.333330 0.666670 0.938340 O
0.000000 0.000000 0.395000 O
0.000000 0.000000 0.105000 O
0.666670 0.333330 0.476670 O
0.666670 0.333330 0.356670 O
0.333330 0.666670 0.643330 O
0.333330 0.666670 0.523330 O
0.000000 0.000000 0.810000 O
0.000000 0.000000 0.690000 O
0.666670 0.333330 0.976670 O
0.666670 0.333330 0.856670 O
0.333330 0.666670 0.143330 O
0.333330 0.666670 0.023340 O
0.000000 0.000000 0.310000 O
0.000000 0.000000 0.190000 O
