Li24 Co24 O48
1.0
2.815600 0.000000 0.000000
-1.407800 2.438381 0.000000
0.000000 0.000000 112.433601
Li Co O
   9  24  48
direct
0.333330 0.666670 0.979170 Li
0.999997 0.000003 0.312503 Li
0.666663 0.333337 0.645837 Li
0.000000 0.000000 0.437500 Li
0.666667 0.333333 0.770833 Li
0.333333 0.666667 0.104167 Li
0.000000 0.000000 0.562500 Li
0.666667 0.333333 0.895833 Li
0.333333 0.666667 0.229167 Li
0.000000 0.000000 0.000000 Co
0.666667 0.333333 0.333333 Co
0.333333 0.666667 0.666667 Co
0.000000 0.000000 0.875000 Co
0.666667 0.333333 0.208333 Co
0.333333 0.666667 0.541667 Co
0.333330 0.666670 0.041670 Co
0.999997 0.000003 0.375003 Co
0.666663 0.333337 0.708337 Co
0.333330 0.666670 0.916670 Co
0.999997 0.000003 0.250003 Co
0.666663 0.333337 0.583337 Co
0.666670 0.333330 0.083330 Co
0.333337 0.666663 0.416663 Co
0.000003 0.999997 0.749997 Co
0.666670 0.333330 0.958330 Co
0.333337 0.666663 0.291663 Co
0.000003 0.999997 0.624997 Co
0.000000 0.000000 0.125000 Co
0.666667 0.333333 0.458333 Co
0.333333 0.666667 0.791667 Co
0.000000 0.000000 0.500000 Co
0.666667 0.333333 0.833333 Co
0.333333 0.666667 0.166667 Co
0.000000 0.000000 0.967460 O
0.666667 0.333333 0.300793 O
0.333333 0.666667 0.634127 O
0.000000 0.000000 0.907540 O
0.666667 0.333333 0.240873 O
0.333333 0.666667 0.574207 O
0.333330 0.666670 0.009130 O
0.999997 0.000003 0.342463 O
0.666663 0.333337 0.675797 O
0.333330 0.666670 0.949210 O
0.999997 0.000003 0.282543 O
0.666663 0.333337 0.615877 O
0.666670 0.333330 0.050790 O
0.333337 0.666663 0.384123 O
0.000003 0.999997 0.717457 O
0.666670 0.333330 0.990870 O
0.333337 0.666663 0.324203 O
0.000003 0.999997 0.657537 O
0.000000 0.000000 0.092460 O
0.666667 0.333333 0.425793 O
0.333333 0.666667 0.759127 O
0.000000 0.000000 0.217460 O
0.666667 0.333333 0.550793 O
0.333333 0.666667 0.884127 O
0.000000 0.000000 0.467460 O
0.666667 0.333333 0.800793 O
0.333333 0.666667 0.134127 O
0.000000 0.000000 0.592460 O
0.666667 0.333333 0.925793 O
0.333333 0.666667 0.259127 O
0.000000 0.000000 0.842460 O
0.666667 0.333333 0.175793 O
0.333333 0.666667 0.509127 O
0.000000 0.000000 0.032540 O
0.666667 0.333333 0.365873 O
0.333333 0.666667 0.699207 O
0.333330 0.666670 0.074210 O
0.999997 0.000003 0.407543 O
0.666663 0.333337 0.740877 O
0.666670 0.333330 0.115870 O
0.333337 0.666663 0.449203 O
0.000003 0.999997 0.782537 O
0.000000 0.000000 0.157540 O
0.666667 0.333333 0.490873 O
0.333333 0.666667 0.824207 O
0.333330 0.666670 0.199210 O
0.999997 0.000003 0.532543 O
0.666663 0.333337 0.865877 O
