Li2 C12
1.0
4.323294 0.000000 0.000000
-2.161647 3.744082 0.000000
0.000000 0.000000 7.490736
Li C
   1  12
direct
0.000000 0.000000 0.250000 Li
0.000000 0.333550 0.000000 C
0.666450 0.666450 0.000000 C
0.333550 0.000000 0.000000 C
0.000000 0.666450 0.000000 C
0.333550 0.333550 0.000000 C
0.666450 0.000000 0.000000 C
0.333550 0.000000 0.500000 C
0.000000 0.333550 0.500000 C
0.666450 0.666450 0.500000 C
0.666450 0.000000 0.500000 C
0.000000 0.666450 0.500000 C
0.333550 0.333550 0.500000 C
