Li24 Co24 O48
1.0
5.631200 0.000000 0.000000
-2.815600 4.876762 0.000000
0.000000 0.000000 28.108400
Li Co O
   15  24  48
direct
0.500000 0.500000 0.750000 Li
0.500000 0.000000 0.750000 Li
0.000000 0.500000 0.750000 Li
0.166667 0.833333 0.083333 Li
0.166667 0.333333 0.083333 Li
0.666667 0.833333 0.083333 Li
0.833333 0.166667 0.416667 Li
0.833333 0.666667 0.416667 Li
0.333333 0.166667 0.416667 Li
0.333330 0.666670 0.916670 Li
0.999997 0.000003 0.250003 Li
0.666663 0.333337 0.583337 Li
0.000000 0.000000 0.750000 Li
0.666667 0.333333 0.083333 Li
0.333333 0.666667 0.416667 Li
0.500000 0.500000 0.000000 Co
0.500000 0.000000 0.000000 Co
0.000000 0.500000 0.000000 Co
0.166667 0.833333 0.333333 Co
0.166667 0.333333 0.333333 Co
0.666667 0.833333 0.333333 Co
0.833333 0.166667 0.666667 Co
0.833333 0.666667 0.666667 Co
0.333333 0.166667 0.666667 Co
0.500000 0.500000 0.500000 Co
0.500000 0.000000 0.500000 Co
0.000000 0.500000 0.500000 Co
0.166667 0.833333 0.833333 Co
0.166667 0.333333 0.833333 Co
0.666667 0.833333 0.833333 Co
0.833333 0.166667 0.166667 Co
0.833333 0.666667 0.166667 Co
0.333333 0.166667 0.166667 Co
0.333330 0.666670 0.166670 Co
0.999997 0.000003 0.500003 Co
0.666663 0.333337 0.833337 Co
0.333330 0.666670 0.666670 Co
0.999997 0.000003 0.000003 Co
0.666663 0.333337 0.333337 Co
0.500000 0.500000 0.869840 O
0.500000 0.000000 0.869840 O
0.000000 0.500000 0.869840 O
0.166667 0.833333 0.203173 O
0.166667 0.333333 0.203173 O
0.666667 0.833333 0.203173 O
0.833333 0.166667 0.536507 O
0.833333 0.666667 0.536507 O
0.333333 0.166667 0.536507 O
0.500000 0.500000 0.630160 O
0.500000 0.000000 0.630160 O
0.000000 0.500000 0.630160 O
0.166667 0.833333 0.963493 O
0.166667 0.333333 0.963493 O
0.666667 0.833333 0.963493 O
0.833333 0.166667 0.296827 O
0.833333 0.666667 0.296827 O
0.333333 0.166667 0.296827 O
0.333330 0.666670 0.036510 O
0.999997 0.000003 0.369843 O
0.666663 0.333337 0.703177 O
0.333330 0.666670 0.796830 O
0.999997 0.000003 0.130163 O
0.666663 0.333337 0.463497 O
0.000000 0.000000 0.869840 O
0.666667 0.333333 0.203173 O
0.333333 0.666667 0.536507 O
0.500000 0.500000 0.369840 O
0.500000 0.000000 0.369840 O
0.000000 0.500000 0.369840 O
0.166667 0.833333 0.703173 O
0.166667 0.333333 0.703173 O
0.666667 0.833333 0.703173 O
0.833333 0.166667 0.036507 O
0.833333 0.666667 0.036507 O
0.333333 0.166667 0.036507 O
0.333330 0.166670 0.796830 O
0.833330 0.166660 0.796830 O
0.833340 0.666670 0.796830 O
0.999997 0.500003 0.130163 O
0.499997 0.499993 0.130163 O
0.500007 0.000003 0.130163 O
0.666663 0.833337 0.463497 O
0.166663 0.833327 0.463497 O
0.166673 0.333337 0.463497 O
0.000000 0.000000 0.630160 O
0.666667 0.333333 0.963493 O
0.333333 0.666667 0.296827 O
