Li8 Co8 O16
1.0
4.804978 0.000000 8.675784
-0.000000 5.631200 0.000000
0.000000 0.000000 9.509439
Li Co O
   2  8  16
direct
0.000000 0.000000 0.000000 Li
0.500000 0.500000 0.000000 Li
0.750000 0.000000 0.500000 Co
0.250000 0.000000 0.500000 Co
0.250000 0.500000 0.500000 Co
0.750000 0.500000 0.500000 Co
0.250000 0.750000 0.000000 Co
0.750000 0.750000 0.000000 Co
0.750000 0.250000 0.000000 Co
0.250000 0.250000 0.000000 Co
0.880160 0.000000 0.760320 O
0.119840 0.000000 0.239680 O
0.380160 0.500000 0.760320 O
0.619840 0.500000 0.239680 O
0.380160 0.750000 0.260320 O
0.619840 0.750000 0.739680 O
0.619840 0.250000 0.739680 O
0.380160 0.250000 0.260320 O
0.880160 0.250000 0.260320 O
0.119840 0.250000 0.739680 O
0.119840 0.750000 0.739680 O
0.880160 0.750000 0.260320 O
0.380160 0.000000 0.760320 O
0.619840 0.000000 0.239680 O
0.880160 0.500000 0.760320 O
0.119840 0.500000 0.239680 O
