Li24 Co24 O48
1.0
2.815600 0.000000 0.000000
-1.407800 2.438381 0.000000
0.000000 0.000000 112.433601
Li Co O
   12  24  48
direct
0.333330 0.666670 0.041670 Li
0.999997 0.000003 0.375003 Li
0.666663 0.333337 0.708337 Li
0.000000 0.000000 0.125000 Li
0.666667 0.333333 0.458333 Li
0.333333 0.666667 0.791667 Li
0.000000 0.000000 0.500000 Li
0.666667 0.333333 0.833333 Li
0.333333 0.666667 0.166667 Li
0.000000 0.000000 0.625000 Li
0.666667 0.333333 0.958333 Li
0.333333 0.666667 0.291667 Li
0.000000 0.000000 0.062500 Co
0.666667 0.333333 0.395833 Co
0.333333 0.666667 0.729167 Co
0.000000 0.000000 0.937500 Co
0.666667 0.333333 0.270833 Co
0.333333 0.666667 0.604167 Co
0.333330 0.666670 0.104170 Co
0.999997 0.000003 0.437503 Co
0.666663 0.333337 0.770837 Co
0.333330 0.666670 0.979170 Co
0.999997 0.000003 0.312503 Co
0.666663 0.333337 0.645837 Co
0.666670 0.333330 0.145830 Co
0.333337 0.666663 0.479163 Co
0.000003 0.999997 0.812497 Co
0.666670 0.333330 0.020830 Co
0.333337 0.666663 0.354163 Co
0.000003 0.999997 0.687497 Co
0.000000 0.000000 0.187500 Co
0.666667 0.333333 0.520833 Co
0.333333 0.666667 0.854167 Co
0.000000 0.000000 0.562500 Co
0.666667 0.333333 0.895833 Co
0.333333 0.666667 0.229167 Co
0.000000 0.000000 0.029960 O
0.666667 0.333333 0.363293 O
0.333333 0.666667 0.696627 O
0.000000 0.000000 0.970040 O
0.666667 0.333333 0.303373 O
0.333333 0.666667 0.636707 O
0.333330 0.666670 0.071630 O
0.999997 0.000003 0.404963 O
0.666663 0.333337 0.738297 O
0.333330 0.666670 0.011710 O
0.999997 0.000003 0.345043 O
0.666663 0.333337 0.678377 O
0.666670 0.333330 0.113290 O
0.333337 0.666663 0.446623 O
0.000003 0.999997 0.779957 O
0.666670 0.333330 0.053370 O
0.333337 0.666663 0.386703 O
0.000003 0.999997 0.720037 O
0.000000 0.000000 0.154960 O
0.666667 0.333333 0.488293 O
0.333333 0.666667 0.821627 O
0.000000 0.000000 0.279960 O
0.666667 0.333333 0.613293 O
0.333333 0.666667 0.946627 O
0.000000 0.000000 0.529960 O
0.666667 0.333333 0.863293 O
0.333333 0.666667 0.196627 O
0.000000 0.000000 0.654960 O
0.666667 0.333333 0.988293 O
0.333333 0.666667 0.321627 O
0.000000 0.000000 0.904960 O
0.666667 0.333333 0.238293 O
0.333333 0.666667 0.571627 O
0.000000 0.000000 0.095040 O
0.666667 0.333333 0.428373 O
0.333333 0.666667 0.761707 O
0.333330 0.666670 0.136710 O
0.999997 0.000003 0.470043 O
0.666663 0.333337 0.803377 O
0.666670 0.333330 0.178370 O
0.333337 0.666663 0.511703 O
0.000003 0.999997 0.845037 O
0.000000 0.000000 0.220040 O
0.666667 0.333333 0.553373 O
0.333333 0.666667 0.886707 O
0.333330 0.666670 0.261710 O
0.999997 0.000003 0.595043 O
0.666663 0.333337 0.928377 O
