Li6 Co6 O12
1.0
2.815600 0.000000 0.000000
-1.407800 2.438381 0.000000
0.000000 0.000000 28.108400
Li Co O
   3  6  12
direct
0.000000 0.000000 0.750000 Li
0.666670 0.333330 0.916660 Li
0.333330 0.666670 0.083330 Li
0.666670 0.333330 0.666660 Co
0.666670 0.333330 0.166670 Co
0.333330 0.666670 0.833330 Co
0.333330 0.666670 0.333330 Co
0.000000 0.000000 0.000000 Co
0.000000 0.000000 0.500000 Co
0.666670 0.333330 0.536510 O
0.666670 0.333330 0.296830 O
0.333330 0.666670 0.703170 O
0.333330 0.666670 0.463490 O
0.000000 0.000000 0.869840 O
0.000000 0.000000 0.630160 O
0.666670 0.333330 0.036510 O
0.666670 0.333330 0.796830 O
0.333330 0.666670 0.203170 O
0.333330 0.666670 0.963490 O
0.000000 0.000000 0.369840 O
0.000000 0.000000 0.130160 O
