Li6 Co6 O12
1.0
1.044711 0.000000 -23.456752
0.000000 2.815600 0.000000
0.000000 0.000000 65.606407
Li Co O
   4  6  12
direct
0.666670 0.000000 0.666670 Li
0.333330 0.000000 0.333330 Li
0.000000 0.000000 0.000000 Li
0.000000 0.500000 0.500000 Li
0.500000 0.000000 0.500000 Co
0.833330 0.000000 0.833330 Co
0.166670 0.000000 0.166670 Co
0.500000 0.500000 0.000000 Co
0.833330 0.500000 0.333330 Co
0.166670 0.500000 0.666670 Co
0.586770 0.000000 0.586770 O
0.413230 0.000000 0.413230 O
0.746560 0.000000 0.746560 O
0.253440 0.000000 0.253440 O
0.920110 0.000000 0.920110 O
0.079890 0.000000 0.079890 O
0.586770 0.500000 0.086770 O
0.413230 0.500000 0.913230 O
0.746560 0.500000 0.246560 O
0.253440 0.500000 0.753440 O
0.920110 0.500000 0.420110 O
0.079890 0.500000 0.579890 O
