Li6 Co6 O12
1.0
2.402489 0.000000 4.337892
-0.000000 8.446800 0.000000
0.000000 0.000000 9.509439
Li Co O
   4  6  12
direct
0.000000 0.666670 0.000000 Li
0.000000 0.333330 0.000000 Li
0.000000 0.166670 0.500000 Li
0.000000 0.833330 0.500000 Li
0.500000 0.666670 0.500000 Co
0.500000 0.333330 0.500000 Co
0.500000 0.166670 0.000000 Co
0.500000 0.833330 0.000000 Co
0.500000 0.500000 0.000000 Co
0.500000 0.000000 0.500000 Co
0.760320 0.666670 0.760320 O
0.239680 0.666670 0.239680 O
0.239680 0.333330 0.239680 O
0.760320 0.333330 0.760320 O
0.760320 0.166670 0.260320 O
0.239680 0.166670 0.739680 O
0.239680 0.833330 0.739680 O
0.760320 0.833330 0.260320 O
0.760320 0.500000 0.260320 O
0.239680 0.500000 0.739680 O
0.760320 0.000000 0.760320 O
0.239680 0.000000 0.239680 O
