Li24 Co24 O48
1.0
5.631200 0.000000 0.000000
-2.815600 4.876762 0.000000
0.000000 0.000000 28.108400
Li Co O
   18  24  48
direct
0.833330 0.166670 0.916670 Li
0.833330 0.666660 0.916670 Li
0.333340 0.166670 0.916670 Li
0.833330 0.166670 0.416670 Li
0.333340 0.166670 0.416670 Li
0.833330 0.666660 0.416670 Li
0.499997 0.500003 0.250003 Li
0.499997 0.999993 0.250003 Li
0.000007 0.500003 0.250003 Li
0.499997 0.500003 0.750003 Li
0.000007 0.500003 0.750003 Li
0.499997 0.999993 0.750003 Li
0.166663 0.833337 0.583337 Li
0.166663 0.333327 0.583337 Li
0.666673 0.833337 0.583337 Li
0.166663 0.833337 0.083337 Li
0.666673 0.833337 0.083337 Li
0.166663 0.333327 0.083337 Li
0.000000 0.000000 0.000000 Co
0.000000 0.000000 0.500000 Co
0.666667 0.333333 0.333333 Co
0.666667 0.333333 0.833333 Co
0.333333 0.666667 0.666667 Co
0.333333 0.666667 0.166667 Co
0.833330 0.166670 0.166670 Co
0.833330 0.666660 0.166670 Co
0.333340 0.166670 0.166670 Co
0.833330 0.166670 0.666670 Co
0.333340 0.166670 0.666670 Co
0.833330 0.666660 0.666670 Co
0.499997 0.500003 0.500003 Co
0.499997 0.999993 0.500003 Co
0.000007 0.500003 0.500003 Co
0.499997 0.500003 0.000003 Co
0.000007 0.500003 0.000003 Co
0.499997 0.999993 0.000003 Co
0.166663 0.833337 0.833337 Co
0.166663 0.333327 0.833337 Co
0.666673 0.833337 0.833337 Co
0.166663 0.833337 0.333337 Co
0.666673 0.833337 0.333337 Co
0.166663 0.333327 0.333337 Co
0.000000 0.000000 0.869840 O
0.000000 0.000000 0.369840 O
0.666667 0.333333 0.203173 O
0.666667 0.333333 0.703173 O
0.333333 0.666667 0.536507 O
0.333333 0.666667 0.036507 O
0.000000 0.000000 0.630160 O
0.000000 0.000000 0.130160 O
0.666667 0.333333 0.963493 O
0.666667 0.333333 0.463493 O
0.333333 0.666667 0.296827 O
0.333333 0.666667 0.796827 O
0.833330 0.166670 0.036510 O
0.833330 0.666660 0.036510 O
0.333340 0.166670 0.036510 O
0.833330 0.166670 0.536510 O
0.333340 0.166670 0.536510 O
0.833330 0.666660 0.536510 O
0.499997 0.500003 0.369843 O
0.499997 0.999993 0.369843 O
0.000007 0.500003 0.369843 O
0.499997 0.500003 0.869843 O
0.000007 0.500003 0.869843 O
0.499997 0.999993 0.869843 O
0.166663 0.833337 0.703177 O
0.166663 0.333327 0.703177 O
0.666673 0.833337 0.703177 O
0.166663 0.833337 0.203177 O
0.666673 0.833337 0.203177 O
0.166663 0.333327 0.203177 O
0.833330 0.166670 0.796830 O
0.833330 0.666660 0.796830 O
0.333340 0.166670 0.796830 O
0.833330 0.166670 0.296830 O
0.333340 0.166670 0.296830 O
0.833330 0.666660 0.296830 O
0.499997 0.500003 0.130163 O
0.499997 0.999993 0.130163 O
0.000007 0.500003 0.130163 O
0.499997 0.500003 0.630163 O
0.000007 0.500003 0.630163 O
0.499997 0.999993 0.630163 O
0.166663 0.833337 0.463497 O
0.166663 0.333327 0.463497 O
0.666673 0.833337 0.463497 O
0.166663 0.833337 0.963497 O
0.666673 0.833337 0.963497 O
0.166663 0.333327 0.963497 O
