Li12 Co12 O24
1.0
2.815600 0.000000 0.000000
-1.407800 2.438381 0.000000
0.000000 0.000000 56.216801
Li Co O
   6  12  24
direct
0.666670 0.333330 0.833330 Li
0.333330 0.666670 0.166670 Li
0.999997 0.000003 0.500003 Li
0.000000 0.000000 0.000000 Li
0.666667 0.333333 0.333333 Li
0.333333 0.666667 0.666667 Li
0.000000 0.000000 0.875000 Co
0.000000 0.000000 0.125000 Co
0.666667 0.333333 0.208333 Co
0.666667 0.333333 0.458333 Co
0.333333 0.666667 0.541667 Co
0.333333 0.666667 0.791667 Co
0.000000 0.000000 0.625000 Co
0.000000 0.000000 0.375000 Co
0.666667 0.333333 0.958333 Co
0.666667 0.333333 0.708333 Co
0.333333 0.666667 0.291667 Co
0.333333 0.666667 0.041667 Co
0.000000 0.000000 0.809920 O
0.000000 0.000000 0.190080 O
0.666667 0.333333 0.143253 O
0.666667 0.333333 0.523413 O
0.333333 0.666667 0.476587 O
0.333333 0.666667 0.856747 O
0.000000 0.000000 0.690080 O
0.000000 0.000000 0.309920 O
0.666667 0.333333 0.023413 O
0.666667 0.333333 0.643253 O
0.333333 0.666667 0.356747 O
0.333333 0.666667 0.976587 O
0.666670 0.333330 0.893250 O
0.333330 0.666670 0.106750 O
0.333337 0.666663 0.226583 O
0.999997 0.000003 0.440083 O
0.000003 0.999997 0.559917 O
0.666663 0.333337 0.773417 O
0.000000 0.000000 0.059920 O
0.000000 0.000000 0.940080 O
0.666667 0.333333 0.393253 O
0.666667 0.333333 0.273413 O
0.333333 0.666667 0.726587 O
0.333333 0.666667 0.606747 O
