Li24 Co48 O96
1.0
2.780000 0.000000 0.000000
-1.390000 2.407551 0.000000
0.000000 0.000000 207.600006
Li Co O
   12  48  96
direct
0.000000 0.000000 0.625000 Li
0.000000 0.000000 0.875000 Li
0.000000 0.000000 0.375000 Li
0.000000 0.000000 0.125000 Li
0.666667 0.333333 0.958333 Li
0.666667 0.333333 0.208333 Li
0.666667 0.333333 0.708333 Li
0.666667 0.333333 0.458333 Li
0.333333 0.666667 0.291667 Li
0.333333 0.666667 0.541667 Li
0.333333 0.666667 0.041667 Li
0.333333 0.666667 0.791667 Li
0.000000 0.000000 0.677500 Co
0.000000 0.000000 0.822500 Co
0.000000 0.000000 0.322500 Co
0.000000 0.000000 0.177500 Co
0.666667 0.333333 0.010833 Co
0.666667 0.333333 0.155833 Co
0.666667 0.333333 0.655833 Co
0.666667 0.333333 0.510833 Co
0.333333 0.666667 0.344167 Co
0.333333 0.666667 0.489167 Co
0.333333 0.666667 0.989167 Co
0.333333 0.666667 0.844167 Co
0.000000 0.000000 0.572500 Co
0.000000 0.000000 0.927500 Co
0.000000 0.000000 0.427500 Co
0.000000 0.000000 0.072500 Co
0.666667 0.333333 0.905833 Co
0.666667 0.333333 0.260833 Co
0.666667 0.333333 0.760833 Co
0.666667 0.333333 0.405833 Co
0.333333 0.666667 0.239167 Co
0.333333 0.666667 0.594167 Co
0.333333 0.666667 0.094167 Co
0.333333 0.666667 0.739167 Co
0.333330 0.666670 0.719170 Co
0.666670 0.333330 0.780830 Co
0.666670 0.333330 0.280830 Co
0.333330 0.666670 0.219170 Co
0.999997 0.000003 0.052503 Co
0.333337 0.666663 0.114163 Co
0.333337 0.666663 0.614163 Co
0.999997 0.000003 0.552503 Co
0.666663 0.333337 0.385837 Co
0.000003 0.999997 0.447497 Co
0.000003 0.999997 0.947497 Co
0.666663 0.333337 0.885837 Co
0.000000 0.000000 0.802500 Co
0.000000 0.000000 0.697500 Co
0.000000 0.000000 0.197500 Co
0.000000 0.000000 0.302500 Co
0.666667 0.333333 0.135833 Co
0.666667 0.333333 0.030833 Co
0.666667 0.333333 0.530833 Co
0.666667 0.333333 0.635833 Co
0.333333 0.666667 0.469167 Co
0.333333 0.666667 0.364167 Co
0.333333 0.666667 0.864167 Co
0.333333 0.666667 0.969167 Co
0.000000 0.000000 0.661250 O
0.000000 0.000000 0.838750 O
0.000000 0.000000 0.338750 O
0.000000 0.000000 0.161250 O
0.666667 0.333333 0.994583 O
0.666667 0.333333 0.172083 O
0.666667 0.333333 0.672083 O
0.666667 0.333333 0.494583 O
0.333333 0.666667 0.327917 O
0.333333 0.666667 0.505417 O
0.333333 0.666667 0.005417 O
0.333333 0.666667 0.827917 O
0.000000 0.000000 0.588750 O
0.000000 0.000000 0.911250 O
0.000000 0.000000 0.411250 O
0.000000 0.000000 0.088750 O
0.666667 0.333333 0.922083 O
0.666667 0.333333 0.244583 O
0.666667 0.333333 0.744583 O
0.666667 0.333333 0.422083 O
0.333333 0.666667 0.255417 O
0.333333 0.666667 0.577917 O
0.333333 0.666667 0.077917 O
0.333333 0.666667 0.755417 O
0.333330 0.666670 0.702920 O
0.666670 0.333330 0.797080 O
0.666670 0.333330 0.297080 O
0.333330 0.666670 0.202920 O
0.999997 0.000003 0.036253 O
0.333337 0.666663 0.130413 O
0.333337 0.666663 0.630413 O
0.999997 0.000003 0.536253 O
0.666663 0.333337 0.369587 O
0.000003 0.999997 0.463747 O
0.000003 0.999997 0.963747 O
0.666663 0.333337 0.869587 O
0.000000 0.000000 0.786250 O
0.000000 0.000000 0.713750 O
0.000000 0.000000 0.213750 O
0.000000 0.000000 0.286250 O
0.666667 0.333333 0.119583 O
0.666667 0.333333 0.047083 O
0.666667 0.333333 0.547083 O
0.666667 0.333333 0.619583 O
0.333333 0.666667 0.452917 O
0.333333 0.666667 0.380417 O
0.333333 0.666667 0.880417 O
0.333333 0.666667 0.952917 O
0.000000 0.000000 0.640000 O
0.000000 0.000000 0.860000 O
0.000000 0.000000 0.360000 O
0.000000 0.000000 0.140000 O
0.666667 0.333333 0.973333 O
0.666667 0.333333 0.193333 O
0.666667 0.333333 0.693333 O
0.666667 0.333333 0.473333 O
0.333333 0.666667 0.306667 O
0.333333 0.666667 0.526667 O
0.333333 0.666667 0.026667 O
0.333333 0.666667 0.806667 O
0.000000 0.000000 0.610000 O
0.000000 0.000000 0.890000 O
0.000000 0.000000 0.390000 O
0.000000 0.000000 0.110000 O
0.666667 0.333333 0.943333 O
0.666667 0.333333 0.223333 O
0.666667 0.333333 0.723333 O
0.666667 0.333333 0.443333 O
0.333333 0.666667 0.276667 O
0.333333 0.666667 0.556667 O
0.333333 0.666667 0.056667 O
0.333333 0.666667 0.776667 O
0.333330 0.666670 0.681670 O
0.666670 0.333330 0.818330 O
0.666670 0.333330 0.318330 O
0.333330 0.666670 0.181670 O
0.999997 0.000003 0.015003 O
0.333337 0.666663 0.151663 O
0.333337 0.666663 0.651663 O
0.999997 0.000003 0.515003 O
0.666663 0.333337 0.348337 O
0.000003 0.999997 0.484997 O
0.000003 0.999997 0.984997 O
0.666663 0.333337 0.848337 O
0.000000 0.000000 0.765000 O
0.000000 0.000000 0.735000 O
0.000000 0.000000 0.235000 O
0.000000 0.000000 0.265000 O
0.666667 0.333333 0.098333 O
0.666667 0.333333 0.068333 O
0.666667 0.333333 0.568333 O
0.666667 0.333333 0.598333 O
0.333333 0.666667 0.431667 O
0.333333 0.666667 0.401667 O
0.333333 0.666667 0.901667 O
0.333333 0.666667 0.931667 O
