Li9 C54
1.0
4.323294 0.000000 0.000000
-2.161647 3.744082 0.000000
0.000000 0.000000 33.708309
Li C
   3  54
direct
0.000000 0.000000 0.888890 Li
0.000000 0.000000 0.555557 Li
0.000000 0.000000 0.222223 Li
0.000000 0.333550 0.944440 C
0.666450 0.666450 0.611107 C
0.333550 0.000000 0.277773 C
0.000000 0.666450 0.944440 C
0.333550 0.333550 0.611107 C
0.666450 0.000000 0.277773 C
0.666450 0.666450 0.944440 C
0.333550 0.000000 0.611107 C
0.000000 0.333550 0.277773 C
0.333550 0.333550 0.944440 C
0.666450 0.000000 0.611107 C
0.000000 0.666450 0.277773 C
0.333550 0.000000 0.944440 C
0.000000 0.333550 0.611107 C
0.666450 0.666450 0.277773 C
0.666450 0.000000 0.944440 C
0.000000 0.666450 0.611107 C
0.333550 0.333550 0.277773 C
0.333550 0.000000 0.833330 C
0.000000 0.333550 0.499997 C
0.666450 0.666450 0.166663 C
0.666450 0.000000 0.833330 C
0.000000 0.666450 0.499997 C
0.333550 0.333550 0.166663 C
0.666450 0.666450 0.833330 C
0.333550 0.000000 0.499997 C
0.000000 0.333550 0.166663 C
0.333550 0.333550 0.833330 C
0.666450 0.000000 0.499997 C
0.000000 0.666450 0.166663 C
0.000000 0.333550 0.833330 C
0.666450 0.666450 0.499997 C
0.333550 0.000000 0.166663 C
0.000000 0.666450 0.833330 C
0.333550 0.333550 0.499997 C
0.666450 0.000000 0.166663 C
0.000000 0.333550 0.055560 C
0.666450 0.666450 0.722227 C
0.333550 0.000000 0.388893 C
0.000000 0.666450 0.055560 C
0.333550 0.333550 0.722227 C
0.666450 0.000000 0.388893 C
0.000000 0.333550 0.388890 C
0.666450 0.666450 0.055557 C
0.333550 0.000000 0.722223 C
0.000000 0.666450 0.388890 C
0.333550 0.333550 0.055557 C
0.666450 0.000000 0.722223 C
0.000000 0.333550 0.722220 C
0.666450 0.666450 0.388887 C
0.333550 0.000000 0.055553 C
0.000000 0.666450 0.722220 C
0.333550 0.333550 0.388887 C
0.666450 0.000000 0.055553 C
