Li4 Co4 O8
1.0
4.607268 0.000000 -13.277561
0.000000 5.631200 0.000000
0.000000 0.000000 4.958756
Li Co O
   2  4  8
direct
0.500000 0.000000 0.500000 Li
0.500000 0.500000 0.500000 Li
0.500000 0.750000 0.000000 Co
0.500000 0.250000 0.000000 Co
0.000000 0.000000 0.500000 Co
0.000000 0.500000 0.500000 Co
0.239680 0.750000 0.000000 O
0.760320 0.750000 0.000000 O
0.760320 0.250000 0.000000 O
0.239680 0.250000 0.000000 O
0.739680 0.000000 0.500000 O
0.260320 0.000000 0.500000 O
0.739680 0.500000 0.500000 O
0.260320 0.500000 0.500000 O
