Li18 C108
1.0
12.898500 0.000000 0.000000
-6.449250 11.170429 0.000000
0.000000 0.000000 7.200000
Li C
   6  108
direct
0.888890 0.444440 0.763880 Li
0.555560 0.444450 0.763880 Li
0.555550 0.111110 0.763880 Li
0.444440 0.888890 0.236120 Li
0.444450 0.555560 0.236120 Li
0.111110 0.555550 0.236120 Li
0.000000 0.777780 0.000000 C
0.222220 0.222220 0.000000 C
0.777780 0.000000 0.000000 C
0.888890 0.555550 0.000000 C
0.444450 0.333340 0.000000 C
0.666660 0.111110 0.000000 C
0.555550 0.888890 0.000000 C
0.333340 0.444450 0.000000 C
0.111110 0.666660 0.000000 C
0.333333 0.111110 0.000000 C
0.888890 0.222223 0.000000 C
0.777777 0.666667 0.000000 C
0.111110 0.333333 0.000000 C
0.222223 0.888890 0.000000 C
0.666667 0.777777 0.000000 C
0.666667 0.444450 0.000000 C
0.555550 0.222217 0.000000 C
0.777783 0.333333 0.000000 C
0.444450 0.666667 0.000000 C
0.222217 0.555550 0.000000 C
0.333333 0.777783 0.000000 C
0.444450 0.000000 0.000000 C
0.000000 0.444450 0.000000 C
0.555550 0.555550 0.000000 C
0.000000 0.111110 0.000000 C
0.888890 0.888890 0.000000 C
0.111110 0.000000 0.000000 C
0.111110 0.888890 0.000000 C
0.111110 0.222220 0.000000 C
0.777780 0.888890 0.000000 C
0.888890 0.111110 0.000000 C
0.222220 0.111110 0.000000 C
0.888890 0.777780 0.000000 C
0.777780 0.555560 0.000000 C
0.444440 0.222220 0.000000 C
0.777780 0.222220 0.000000 C
0.555560 0.777780 0.000000 C
0.222220 0.444440 0.000000 C
0.222220 0.777780 0.000000 C
0.111110 0.555550 0.000000 C
0.444450 0.555560 0.000000 C
0.444440 0.888890 0.000000 C
0.555550 0.111110 0.000000 C
0.555560 0.444450 0.000000 C
0.888890 0.444440 0.000000 C
0.777780 0.666667 0.500000 C
0.333333 0.111113 0.500000 C
0.888887 0.222220 0.500000 C
0.666667 0.777780 0.500000 C
0.111113 0.333333 0.500000 C
0.222220 0.888887 0.500000 C
0.000000 0.444440 0.500000 C
0.555560 0.555560 0.500000 C
0.444440 0.000000 0.500000 C
0.111110 0.000000 0.500000 C
0.000000 0.111110 0.500000 C
0.888890 0.888890 0.500000 C
0.444440 0.333333 0.500000 C
0.666667 0.111107 0.500000 C
0.888893 0.555560 0.500000 C
0.333333 0.444440 0.500000 C
0.111107 0.666667 0.500000 C
0.555560 0.888893 0.500000 C
0.444440 0.666667 0.500000 C
0.333333 0.777773 0.500000 C
0.222227 0.555560 0.500000 C
0.666667 0.444440 0.500000 C
0.777773 0.333333 0.500000 C
0.555560 0.222227 0.500000 C
0.777780 0.000000 0.500000 C
0.000000 0.777780 0.500000 C
0.222220 0.222220 0.500000 C
0.000000 0.888880 0.500000 C
0.111120 0.111120 0.500000 C
0.888880 0.000000 0.500000 C
0.777780 0.444450 0.500000 C
0.555550 0.333330 0.500000 C
0.666670 0.222220 0.500000 C
0.444450 0.777780 0.500000 C
0.333330 0.555550 0.500000 C
0.222220 0.666670 0.500000 C
0.333333 0.222220 0.500000 C
0.777780 0.111113 0.500000 C
0.888887 0.666667 0.500000 C
0.222220 0.333333 0.500000 C
0.111113 0.777780 0.500000 C
0.666667 0.888887 0.500000 C
0.666667 0.555550 0.500000 C
0.444450 0.111117 0.500000 C
0.888883 0.333333 0.500000 C
0.555550 0.666667 0.500000 C
0.111117 0.444450 0.500000 C
0.333333 0.888883 0.500000 C
0.555550 0.000000 0.500000 C
0.000000 0.555550 0.500000 C
0.444450 0.444450 0.500000 C
0.000000 0.222220 0.500000 C
0.777780 0.777780 0.500000 C
0.222220 0.000000 0.500000 C
0.000000 0.666667 0.000000 C
0.333333 0.333333 0.000000 C
0.666667 0.000000 0.000000 C
0.333333 0.000000 0.000000 C
0.000000 0.333333 0.000000 C
0.666667 0.666667 0.000000 C
0.666667 0.333333 0.000000 C
0.333333 0.666667 0.000000 C
0.000000 0.000000 0.000000 C
