Li6 C36
1.0
4.323294 0.000000 0.000000
-2.161647 3.744082 0.000000
0.000000 0.000000 22.472206
Li C
   4  36
direct
0.000000 0.000000 0.750000 Li
0.000000 0.000000 0.250000 Li
0.000000 0.000000 0.916670 Li
0.000000 0.000000 0.083330 Li
0.000000 0.333550 0.666667 C
0.666450 0.666450 0.666667 C
0.333550 0.000000 0.666667 C
0.000000 0.666450 0.666667 C
0.333550 0.333550 0.666667 C
0.666450 0.000000 0.666667 C
0.333550 0.000000 0.333333 C
0.666450 0.666450 0.333333 C
0.000000 0.333550 0.333333 C
0.666450 0.000000 0.333333 C
0.333550 0.333550 0.333333 C
0.000000 0.666450 0.333333 C
0.333550 0.000000 0.500000 C
0.000000 0.333550 0.500000 C
0.666450 0.666450 0.500000 C
0.666450 0.000000 0.500000 C
0.000000 0.666450 0.500000 C
0.333550 0.333550 0.500000 C
0.000000 0.333550 0.833330 C
0.666450 0.666450 0.833330 C
0.333550 0.000000 0.833330 C
0.000000 0.666450 0.833330 C
0.333550 0.333550 0.833330 C
0.666450 0.000000 0.833330 C
0.333550 0.000000 0.166670 C
0.666450 0.666450 0.166670 C
0.000000 0.333550 0.166670 C
0.666450 0.000000 0.166670 C
0.333550 0.333550 0.166670 C
0.000000 0.666450 0.166670 C
0.000000 0.333550 0.000000 C
0.666450 0.666450 0.000000 C
0.333550 0.000000 0.000000 C
0.000000 0.666450 0.000000 C
0.333550 0.333550 0.000000 C
0.666450 0.000000 0.000000 C
