Li12 Co12 O24
1.0
2.815600 0.000000 0.000000
-1.407800 2.438381 0.000000
0.000000 0.000000 56.216801
Li Co O
   6  12  24
direct
0.000000 0.000000 0.625000 Li
0.000000 0.000000 0.375000 Li
0.666667 0.333333 0.958333 Li
0.666667 0.333333 0.708333 Li
0.333333 0.666667 0.291667 Li
0.333333 0.666667 0.041667 Li
0.000000 0.000000 0.750000 Co
0.000000 0.000000 0.250000 Co
0.666667 0.333333 0.083333 Co
0.666667 0.333333 0.583333 Co
0.333333 0.666667 0.416667 Co
0.333333 0.666667 0.916667 Co
0.000000 0.000000 0.500000 Co
0.666667 0.333333 0.833333 Co
0.333333 0.666667 0.166667 Co
0.333330 0.666670 0.666670 Co
0.666670 0.333330 0.333330 Co
0.999997 0.000003 0.000003 Co
0.000000 0.000000 0.684920 O
0.000000 0.000000 0.315080 O
0.666667 0.333333 0.018253 O
0.666667 0.333333 0.648413 O
0.333333 0.666667 0.351587 O
0.333333 0.666667 0.981747 O
0.000000 0.000000 0.565080 O
0.000000 0.000000 0.434920 O
0.666667 0.333333 0.898413 O
0.666667 0.333333 0.768253 O
0.333333 0.666667 0.231747 O
0.333333 0.666667 0.101587 O
0.333330 0.666670 0.851590 O
0.666670 0.333330 0.148410 O
0.999997 0.000003 0.184923 O
0.333337 0.666663 0.481743 O
0.666663 0.333337 0.518257 O
0.000003 0.999997 0.815077 O
0.333330 0.666670 0.731750 O
0.666670 0.333330 0.268250 O
0.999997 0.000003 0.065083 O
0.333337 0.666663 0.601583 O
0.666663 0.333337 0.398417 O
0.000003 0.999997 0.934917 O
