Li3 Co3 O6
1.0
2.815600 0.000000 0.000000
-1.407800 2.438381 0.000000
0.000000 0.000000 14.054200
Li Co O
3 3 6
direct
0.666670 0.333330 0.333330 Li
0.333330 0.666670 0.666670 Li
0.000000 0.000000 0.000000 Li
0.666670 0.333330 0.833330 Co
0.333330 0.666670 0.166670 Co
0.000000 0.000000 0.500000 Co
0.666670 0.333330 0.573010 O
0.333330 0.666670 0.426990 O
0.666670 0.333330 0.093650 O
0.333330 0.666670 0.906350 O
0.000000 0.000000 0.239680 O
0.000000 0.000000 0.760320 O
