Li8 Co8 O16
1.0
3.251173 0.000000 -9.369467
0.000000 5.631200 0.000000
0.000000 0.000000 14.054200
Li Co O
8 8 16
direct
0.000000 0.000000 0.000000 Li
0.500000 0.500000 0.000000 Li
0.250000 0.750000 0.500000 Li
0.750000 0.750000 0.500000 Li
0.750000 0.250000 0.500000 Li
0.250000 0.250000 0.500000 Li
0.500000 0.000000 0.000000 Li
0.000000 0.500000 0.000000 Li
0.000000 0.000000 0.500000 Co
0.500000 0.500000 0.500000 Co
0.250000 0.750000 0.000000 Co
0.750000 0.750000 0.000000 Co
0.750000 0.250000 0.000000 Co
0.250000 0.250000 0.000000 Co
0.500000 0.000000 0.500000 Co
0.000000 0.500000 0.500000 Co
0.000000 0.000000 0.239680 O
0.000000 0.000000 0.760320 O
0.500000 0.500000 0.239680 O
0.500000 0.500000 0.760320 O
0.250000 0.750000 0.739680 O
0.750000 0.750000 0.260320 O
0.750000 0.250000 0.260320 O
0.250000 0.250000 0.739680 O
0.750000 0.250000 0.739680 O
0.250000 0.250000 0.260320 O
0.250000 0.750000 0.260320 O
0.750000 0.750000 0.739680 O
0.500000 0.000000 0.239680 O
0.500000 0.000000 0.760320 O
0.000000 0.500000 0.239680 O
0.000000 0.500000 0.760320 O
