Li8 Co8 O16
1.0
8.012944 0.000000 5.843781
-0.000000 5.631200 0.000000
0.000000 0.000000 5.702356
Li Co O
8 8 16
direct
0.750000 0.000000 0.000000 Li
0.250000 0.000000 0.000000 Li
0.250000 0.500000 0.000000 Li
0.750000 0.500000 0.000000 Li
0.000000 0.250000 0.500000 Li
0.000000 0.750000 0.500000 Li
0.500000 0.750000 0.500000 Li
0.500000 0.250000 0.500000 Li
0.250000 0.000000 0.500000 Co
0.750000 0.000000 0.500000 Co
0.750000 0.500000 0.500000 Co
0.250000 0.500000 0.500000 Co
0.500000 0.250000 0.000000 Co
0.500000 0.750000 0.000000 Co
0.000000 0.750000 0.000000 Co
0.000000 0.250000 0.000000 Co
0.510320 0.000000 0.760320 O
0.489680 0.000000 0.239680 O
0.010320 0.500000 0.760320 O
0.989680 0.500000 0.239680 O
0.989680 0.000000 0.239680 O
0.010320 0.000000 0.760320 O
0.489680 0.500000 0.239680 O
0.510320 0.500000 0.760320 O
0.760320 0.250000 0.260320 O
0.239680 0.250000 0.739680 O
0.239680 0.750000 0.739680 O
0.760320 0.750000 0.260320 O
0.260320 0.750000 0.260320 O
0.739680 0.750000 0.739680 O
0.739680 0.250000 0.739680 O
0.260320 0.250000 0.260320 O
