Li21 Co21 O42
1.0
7.449377 0.000000 0.000000
-3.724688 6.451350 0.000000
0.000000 0.000000 14.054200
Li Co O
21 21 42
direct
0.142860 0.714290 0.000000 Li
0.285710 0.428570 0.000000 Li
0.571430 0.857140 0.000000 Li
0.809527 0.047623 0.333333 Li
0.952377 0.761903 0.333333 Li
0.238097 0.190473 0.333333 Li
0.476193 0.380957 0.666667 Li
0.619043 0.095237 0.666667 Li
0.904763 0.523807 0.666667 Li
0.857140 0.285710 0.000000 Li
0.714290 0.571430 0.000000 Li
0.428570 0.142860 0.000000 Li
0.523807 0.619043 0.333333 Li
0.380957 0.904763 0.333333 Li
0.095237 0.476193 0.333333 Li
0.190473 0.952377 0.666667 Li
0.047623 0.238097 0.666667 Li
0.761903 0.809527 0.666667 Li
0.000000 0.000000 0.000000 Li
0.666667 0.333333 0.333333 Li
0.333333 0.666667 0.666667 Li
0.142860 0.714290 0.500000 Co
0.285710 0.428570 0.500000 Co
0.571430 0.857140 0.500000 Co
0.809527 0.047623 0.833333 Co
0.952377 0.761903 0.833333 Co
0.238097 0.190473 0.833333 Co
0.476193 0.380957 0.166667 Co
0.619043 0.095237 0.166667 Co
0.904763 0.523807 0.166667 Co
0.857140 0.285710 0.500000 Co
0.714290 0.571430 0.500000 Co
0.428570 0.142860 0.500000 Co
0.523807 0.619043 0.833333 Co
0.380957 0.904763 0.833333 Co
0.095237 0.476193 0.833333 Co
0.190473 0.952377 0.166667 Co
0.047623 0.238097 0.166667 Co
0.761903 0.809527 0.166667 Co
0.000000 0.000000 0.500000 Co
0.666667 0.333333 0.833333 Co
0.333333 0.666667 0.166667 Co
0.142860 0.714290 0.239680 O
0.285710 0.428570 0.239680 O
0.571430 0.857140 0.239680 O
0.809527 0.047623 0.573013 O
0.952377 0.761903 0.573013 O
0.238097 0.190473 0.573013 O
0.476193 0.380957 0.906347 O
0.619043 0.095237 0.906347 O
0.904763 0.523807 0.906347 O
0.571430 0.857140 0.760320 O
0.142860 0.714290 0.760320 O
0.285710 0.428570 0.760320 O
0.238097 0.190473 0.093653 O
0.809527 0.047623 0.093653 O
0.952377 0.761903 0.093653 O
0.904763 0.523807 0.426987 O
0.476193 0.380957 0.426987 O
0.619043 0.095237 0.426987 O
0.857140 0.285710 0.760320 O
0.714290 0.571430 0.760320 O
0.428570 0.142860 0.760320 O
0.523807 0.619043 0.093653 O
0.380957 0.904763 0.093653 O
0.095237 0.476193 0.093653 O
0.190473 0.952377 0.426987 O
0.047623 0.238097 0.426987 O
0.761903 0.809527 0.426987 O
0.000000 0.000000 0.760320 O
0.666667 0.333333 0.093653 O
0.333333 0.666667 0.426987 O
0.714290 0.571430 0.239680 O
0.428570 0.142860 0.239680 O
0.857140 0.285710 0.239680 O
0.380957 0.904763 0.573013 O
0.095237 0.476193 0.573013 O
0.523807 0.619043 0.573013 O
0.047623 0.238097 0.906347 O
0.761903 0.809527 0.906347 O
0.190473 0.952377 0.906347 O
0.666670 0.333330 0.573010 O
0.333337 0.666663 0.906343 O
0.000003 0.999997 0.239677 O
