Li6 Co6 O12
1.0
1.625587 0.000000 -9.369466
0.000000 8.446800 0.000000
0.000000 0.000000 14.054200
Li Co O
6 6 12
direct
0.000000 0.666670 0.000000 Li
0.000000 0.333330 0.000000 Li
0.500000 0.166670 0.000000 Li
0.500000 0.833330 0.000000 Li
0.500000 0.500000 0.000000 Li
0.000000 0.000000 0.000000 Li
0.000000 0.666670 0.500000 Co
0.000000 0.333330 0.500000 Co
0.500000 0.166670 0.500000 Co
0.500000 0.833330 0.500000 Co
0.500000 0.500000 0.500000 Co
0.000000 0.000000 0.500000 Co
0.000000 0.666670 0.239680 O
0.000000 0.666670 0.760320 O
0.000000 0.333330 0.760320 O
0.000000 0.333330 0.239680 O
0.500000 0.166670 0.239680 O
0.500000 0.166670 0.760320 O
0.500000 0.833330 0.760320 O
0.500000 0.833330 0.239680 O
0.500000 0.500000 0.239680 O
0.500000 0.500000 0.760320 O
0.000000 0.000000 0.239680 O
0.000000 0.000000 0.760320 O
