Li2 Co2 O4
1.0
1.625587 0.000000 -9.369466
0.000000 2.815600 0.000000
0.000000 0.000000 14.054200
Li Co O
2 2 4
direct
0.000000 0.000000 0.000000 Li
0.500000 0.500000 0.000000 Li
0.000000 0.000000 0.500000 Co
0.500000 0.500000 0.500000 Co
0.000000 0.000000 0.239680 O
0.000000 0.000000 0.760320 O
0.500000 0.500000 0.239680 O
0.500000 0.500000 0.760320 O
