Li12 Co12 O24
1.0
2.815600 0.000000 0.000000
-1.407800 2.438381 0.000000
0.000000 0.000000 56.216801
Li Co O
12 12 24
direct
0.000000 0.000000 0.000000 Li
0.666667 0.333333 0.333333 Li
0.333333 0.666667 0.666667 Li
0.666670 0.333330 0.083330 Li
0.333330 0.666670 0.916670 Li
0.333337 0.666663 0.416663 Li
0.999997 0.000003 0.250003 Li
0.000003 0.999997 0.749997 Li
0.666663 0.333337 0.583337 Li
0.333330 0.666670 0.166670 Li
0.666670 0.333330 0.833330 Li
0.999997 0.000003 0.500003 Li
0.000000 0.000000 0.125000 Co
0.000000 0.000000 0.875000 Co
0.666667 0.333333 0.458333 Co
0.666667 0.333333 0.208333 Co
0.333333 0.666667 0.791667 Co
0.333333 0.666667 0.541667 Co
0.666670 0.333330 0.958330 Co
0.333330 0.666670 0.041670 Co
0.333337 0.666663 0.291663 Co
0.999997 0.000003 0.375003 Co
0.000003 0.999997 0.624997 Co
0.666663 0.333337 0.708337 Co
0.000000 0.000000 0.059920 O
0.000000 0.000000 0.940080 O
0.666667 0.333333 0.393253 O
0.666667 0.333333 0.273413 O
0.333333 0.666667 0.726587 O
0.333333 0.666667 0.606747 O
0.666670 0.333330 0.143250 O
0.333330 0.666670 0.856750 O
0.333337 0.666663 0.476583 O
0.999997 0.000003 0.190083 O
0.000003 0.999997 0.809917 O
0.666663 0.333337 0.523417 O
0.666670 0.333330 0.023410 O
0.333330 0.666670 0.976590 O
0.333337 0.666663 0.356743 O
0.999997 0.000003 0.309923 O
0.000003 0.999997 0.690077 O
0.666663 0.333337 0.643257 O
0.333330 0.666670 0.226590 O
0.666670 0.333330 0.773410 O
0.999997 0.000003 0.559923 O
0.333337 0.666663 0.106743 O
0.666663 0.333337 0.893257 O
0.000003 0.999997 0.440077 O
