Li6 Co6 O12
1.0
2.815600 0.000000 0.000000
-1.407800 2.438381 0.000000
0.000000 0.000000 28.108400
Li Co O
6 6 12
direct
0.000000 0.000000 0.500000 Li
0.666667 0.333333 0.833333 Li
0.333333 0.666667 0.166667 Li
0.333330 0.666670 0.666670 Li
0.666670 0.333330 0.333330 Li
0.999997 0.000003 0.000003 Li
0.000000 0.000000 0.750000 Co
0.000000 0.000000 0.250000 Co
0.666667 0.333333 0.083333 Co
0.666667 0.333333 0.583333 Co
0.333333 0.666667 0.416667 Co
0.333333 0.666667 0.916667 Co
0.000000 0.000000 0.619840 O
0.000000 0.000000 0.380160 O
0.666667 0.333333 0.953173 O
0.666667 0.333333 0.713493 O
0.333333 0.666667 0.286507 O
0.333333 0.666667 0.046827 O
0.333330 0.666670 0.786510 O
0.666670 0.333330 0.213490 O
0.999997 0.000003 0.119843 O
0.333337 0.666663 0.546823 O
0.666663 0.333337 0.453177 O
0.000003 0.999997 0.880157 O
