Li4 Co4 O8
1.0
4.607268 0.000000 -13.277561
0.000000 2.815600 0.000000
0.000000 0.000000 9.917512
Li Co O
4 4 8
direct
0.000000 0.000000 0.750000 Li
0.000000 0.000000 0.250000 Li
0.500000 0.500000 0.000000 Li
0.500000 0.500000 0.500000 Li
0.500000 0.000000 0.750000 Co
0.500000 0.000000 0.250000 Co
0.000000 0.500000 0.000000 Co
0.000000 0.500000 0.500000 Co
0.239680 0.000000 0.750000 O
0.760320 0.000000 0.250000 O
0.239680 0.000000 0.250000 O
0.760320 0.000000 0.750000 O
0.739680 0.500000 0.000000 O
0.260320 0.500000 0.000000 O
0.739680 0.500000 0.500000 O
0.260320 0.500000 0.500000 O
