Li12 Co12 O24
1.0
2.815600 0.000000 0.000000
-1.407800 2.438381 0.000000
0.000000 0.000000 56.216801
Li Co O
12 12 24
direct
0.000000 0.000000 0.000000 Li
0.000000 0.000000 0.500000 Li
0.666667 0.333333 0.333333 Li
0.666667 0.333333 0.833333 Li
0.333333 0.666667 0.666667 Li
0.333333 0.666667 0.166667 Li
0.666670 0.333330 0.083330 Li
0.666670 0.333330 0.583330 Li
0.333337 0.666663 0.416663 Li
0.333337 0.666663 0.916663 Li
0.000003 0.999997 0.749997 Li
0.000003 0.999997 0.249997 Li
0.000000 0.000000 0.125000 Co
0.000000 0.000000 0.625000 Co
0.666667 0.333333 0.458333 Co
0.666667 0.333333 0.958333 Co
0.333333 0.666667 0.791667 Co
0.333333 0.666667 0.291667 Co
0.000000 0.000000 0.875000 Co
0.000000 0.000000 0.375000 Co
0.666667 0.333333 0.208333 Co
0.666667 0.333333 0.708333 Co
0.333333 0.666667 0.541667 Co
0.333333 0.666667 0.041667 Co
0.000000 0.000000 0.059920 O
0.000000 0.000000 0.559920 O
0.666667 0.333333 0.393253 O
0.666667 0.333333 0.893253 O
0.333333 0.666667 0.726587 O
0.333333 0.666667 0.226587 O
0.000000 0.000000 0.940080 O
0.000000 0.000000 0.440080 O
0.666667 0.333333 0.273413 O
0.666667 0.333333 0.773413 O
0.333333 0.666667 0.606747 O
0.333333 0.666667 0.106747 O
0.666670 0.333330 0.143250 O
0.666670 0.333330 0.643250 O
0.333337 0.666663 0.476583 O
0.333337 0.666663 0.976583 O
0.000003 0.999997 0.809917 O
0.000003 0.999997 0.309917 O
0.666670 0.333330 0.023410 O
0.666670 0.333330 0.523410 O
0.333337 0.666663 0.356743 O
0.333337 0.666663 0.856743 O
0.000003 0.999997 0.690077 O
0.000003 0.999997 0.190077 O
