Li8 Co8 O16
1.0
2.429286 0.000000 -28.003227
0.000000 5.631200 0.000000
0.000000 0.000000 18.809311
Li Co O
8 8 16
direct
0.000000 0.000000 0.000000 Li
0.500000 0.500000 0.000000 Li
0.500000 0.250000 0.500000 Li
0.500000 0.750000 0.500000 Li
0.000000 0.750000 0.500000 Li
0.000000 0.250000 0.500000 Li
0.000000 0.500000 0.000000 Li
0.500000 0.000000 0.000000 Li
0.250000 0.000000 0.000000 Co
0.750000 0.000000 0.000000 Co
0.750000 0.500000 0.000000 Co
0.250000 0.500000 0.000000 Co
0.750000 0.250000 0.500000 Co
0.250000 0.250000 0.500000 Co
0.250000 0.750000 0.500000 Co
0.750000 0.750000 0.500000 Co
0.119840 0.000000 0.000000 O
0.880160 0.000000 0.000000 O
0.619840 0.500000 0.000000 O
0.380160 0.500000 0.000000 O
0.619840 0.250000 0.500000 O
0.380160 0.250000 0.500000 O
0.380160 0.750000 0.500000 O
0.619840 0.750000 0.500000 O
0.119840 0.750000 0.500000 O
0.880160 0.750000 0.500000 O
0.880160 0.250000 0.500000 O
0.119840 0.250000 0.500000 O
0.119840 0.500000 0.000000 O
0.880160 0.500000 0.000000 O
0.619840 0.000000 0.000000 O
0.380160 0.000000 0.000000 O
