Li6 Co6 O12
1.0
2.815600 0.000000 0.000000
-1.407800 2.438381 0.000000
0.000000 0.000000 28.108400
Li Co O
6 6 12
direct
0.000000 0.666670 0.333330 Li
0.333330 0.333330 0.999997 Li
0.666670 0.000000 0.666663 Li
0.333330 0.333330 0.500000 Li
0.666670 0.000000 0.166667 Li
0.000000 0.666670 0.833333 Li
0.000000 0.666670 0.583330 Co
0.333330 0.333330 0.249997 Co
0.666670 0.000000 0.916663 Co
0.666670 0.000000 0.416670 Co
0.333330 0.333330 0.750003 Co
0.000000 0.666670 0.083337 Co
0.000000 0.666670 0.453170 O
0.333330 0.333330 0.119837 O
0.666670 0.000000 0.786503 O
0.666670 0.000000 0.546830 O
0.333330 0.333330 0.880163 O
0.000000 0.666670 0.213497 O
0.333330 0.333330 0.619840 O
0.666670 0.000000 0.286507 O
0.000000 0.666670 0.953173 O
0.333330 0.333330 0.380160 O
0.000000 0.666670 0.713493 O
0.666670 0.000000 0.046827 O
