Li4 Co4 O8
1.0
1.625709 0.000000 -37.477864
0.000000 2.815600 0.000000
0.000000 0.000000 28.108400
Li Co O
4 4 8
direct
0.000000 0.000000 0.750000 Li
0.000000 0.000000 0.250000 Li
0.500000 0.500000 0.250000 Li
0.500000 0.500000 0.750000 Li
0.000000 0.000000 0.000000 Co
0.000000 0.000000 0.500000 Co
0.500000 0.500000 0.500000 Co
0.500000 0.500000 0.000000 Co
0.000000 0.000000 0.869840 O
0.000000 0.000000 0.130160 O
0.000000 0.000000 0.630160 O
0.000000 0.000000 0.369840 O
0.500000 0.500000 0.369840 O
0.500000 0.500000 0.630160 O
0.500000 0.500000 0.130160 O
0.500000 0.500000 0.869840 O
