Li24 Co48 O96
1.0
2.780000 0.000000 0.000000
-1.390000 2.407551 0.000000
0.000000 0.000000 207.600006
Li Co O
   12  48  96
direct
0.000000 0.000000 0.875000 Li
0.000000 0.000000 0.375000 Li
0.666667 0.333333 0.208333 Li
0.666667 0.333333 0.708333 Li
0.333333 0.666667 0.541667 Li
0.333333 0.666667 0.041667 Li
0.000000 0.000000 0.000000 Li
0.000000 0.000000 0.500000 Li
0.666667 0.333333 0.333333 Li
0.666667 0.333333 0.833333 Li
0.333333 0.666667 0.666667 Li
0.333333 0.666667 0.166667 Li
0.000000 0.000000 0.927500 Co
0.000000 0.000000 0.427500 Co
0.666667 0.333333 0.260833 Co
0.666667 0.333333 0.760833 Co
0.333333 0.666667 0.594167 Co
0.333333 0.666667 0.094167 Co
0.000000 0.000000 0.822500 Co
0.000000 0.000000 0.322500 Co
0.666667 0.333333 0.155833 Co
0.666667 0.333333 0.655833 Co
0.333333 0.666667 0.489167 Co
0.333333 0.666667 0.989167 Co
0.333330 0.666670 0.969170 Co
0.333330 0.666670 0.469170 Co
0.999997 0.000003 0.302503 Co
0.999997 0.000003 0.802503 Co
0.666663 0.333337 0.635837 Co
0.666663 0.333337 0.135837 Co
0.333330 0.666670 0.864170 Co
0.333330 0.666670 0.364170 Co
0.999997 0.000003 0.197503 Co
0.999997 0.000003 0.697503 Co
0.666663 0.333337 0.530837 Co
0.666663 0.333337 0.030837 Co
0.666670 0.333330 0.010830 Co
0.666670 0.333330 0.510830 Co
0.333337 0.666663 0.344163 Co
0.333337 0.666663 0.844163 Co
0.000003 0.999997 0.677497 Co
0.000003 0.999997 0.177497 Co
0.666670 0.333330 0.905830 Co
0.666670 0.333330 0.405830 Co
0.333337 0.666663 0.239163 Co
0.333337 0.666663 0.739163 Co
0.000003 0.999997 0.572497 Co
0.000003 0.999997 0.072497 Co
0.000000 0.000000 0.052500 Co
0.000000 0.000000 0.552500 Co
0.666667 0.333333 0.385833 Co
0.666667 0.333333 0.885833 Co
0.333333 0.666667 0.719167 Co
0.333333 0.666667 0.219167 Co
0.000000 0.000000 0.947500 Co
0.000000 0.000000 0.447500 Co
0.666667 0.333333 0.280833 Co
0.666667 0.333333 0.780833 Co
0.333333 0.666667 0.614167 Co
0.333333 0.666667 0.114167 Co
0.000000 0.000000 0.911250 O
0.000000 0.000000 0.411250 O
0.666667 0.333333 0.244583 O
0.666667 0.333333 0.744583 O
0.333333 0.666667 0.577917 O
0.333333 0.666667 0.077917 O
0.000000 0.000000 0.838750 O
0.000000 0.000000 0.338750 O
0.666667 0.333333 0.172083 O
0.666667 0.333333 0.672083 O
0.333333 0.666667 0.505417 O
0.333333 0.666667 0.005417 O
0.333330 0.666670 0.952920 O
0.333330 0.666670 0.452920 O
0.999997 0.000003 0.286253 O
0.999997 0.000003 0.786253 O
0.666663 0.333337 0.619587 O
0.666663 0.333337 0.119587 O
0.333330 0.666670 0.880420 O
0.333330 0.666670 0.380420 O
0.999997 0.000003 0.213753 O
0.999997 0.000003 0.713753 O
0.666663 0.333337 0.547087 O
0.666663 0.333337 0.047087 O
0.666670 0.333330 0.994580 O
0.666670 0.333330 0.494580 O
0.333337 0.666663 0.327913 O
0.333337 0.666663 0.827913 O
0.000003 0.999997 0.661247 O
0.000003 0.999997 0.161247 O
0.666670 0.333330 0.922080 O
0.666670 0.333330 0.422080 O
0.333337 0.666663 0.255413 O
0.333337 0.666663 0.755413 O
0.000003 0.999997 0.588747 O
0.000003 0.999997 0.088747 O
0.000000 0.000000 0.036250 O
0.000000 0.000000 0.536250 O
0.666667 0.333333 0.369583 O
0.666667 0.333333 0.869583 O
0.333333 0.666667 0.702917 O
0.333333 0.666667 0.202917 O
0.000000 0.000000 0.963750 O
0.000000 0.000000 0.463750 O
0.666667 0.333333 0.297083 O
0.666667 0.333333 0.797083 O
0.333333 0.666667 0.630417 O
0.333333 0.666667 0.130417 O
0.000000 0.000000 0.890000 O
0.000000 0.000000 0.390000 O
0.666667 0.333333 0.223333 O
0.666667 0.333333 0.723333 O
0.333333 0.666667 0.556667 O
0.333333 0.666667 0.056667 O
0.000000 0.000000 0.860000 O
0.000000 0.000000 0.360000 O
0.666667 0.333333 0.193333 O
0.666667 0.333333 0.693333 O
0.333333 0.666667 0.526667 O
0.333333 0.666667 0.026667 O
0.333330 0.666670 0.931670 O
0.333330 0.666670 0.431670 O
0.999997 0.000003 0.265003 O
0.999997 0.000003 0.765003 O
0.666663 0.333337 0.598337 O
0.666663 0.333337 0.098337 O
0.333330 0.666670 0.901670 O
0.333330 0.666670 0.401670 O
0.999997 0.000003 0.235003 O
0.999997 0.000003 0.735003 O
0.666663 0.333337 0.568337 O
0.666663 0.333337 0.068337 O
0.666670 0.333330 0.973330 O
0.666670 0.333330 0.473330 O
0.333337 0.666663 0.306663 O
0.333337 0.666663 0.806663 O
0.000003 0.999997 0.639997 O
0.000003 0.999997 0.139997 O
0.666670 0.333330 0.943330 O
0.666670 0.333330 0.443330 O
0.333337 0.666663 0.276663 O
0.333337 0.666663 0.776663 O
0.000003 0.999997 0.609997 O
0.000003 0.999997 0.109997 O
0.000000 0.000000 0.015000 O
0.000000 0.000000 0.515000 O
0.666667 0.333333 0.348333 O
0.666667 0.333333 0.848333 O
0.333333 0.666667 0.681667 O
0.333333 0.666667 0.181667 O
0.000000 0.000000 0.985000 O
0.000000 0.000000 0.485000 O
0.666667 0.333333 0.318333 O
0.666667 0.333333 0.818333 O
0.333333 0.666667 0.651667 O
0.333333 0.666667 0.151667 O
