Li21 Co42 O84
1.0
2.780000 0.000000 0.000000
-1.390000 2.407551 0.000000
0.000000 0.000000 181.650009
Li Co O
   12  42  84
direct
0.333330 0.666670 0.238100 Li
0.999997 0.000003 0.571433 Li
0.666663 0.333337 0.904767 Li
0.000000 0.000000 0.428570 Li
0.666667 0.333333 0.761903 Li
0.333333 0.666667 0.095237 Li
0.000000 0.000000 0.714290 Li
0.666667 0.333333 0.047623 Li
0.333333 0.666667 0.380957 Li
0.000000 0.000000 0.000000 Li
0.666667 0.333333 0.333333 Li
0.333333 0.666667 0.666667 Li
0.000000 0.000000 0.202860 Co
0.666667 0.333333 0.536193 Co
0.333333 0.666667 0.869527 Co
0.000000 0.000000 0.082860 Co
0.666667 0.333333 0.416193 Co
0.333333 0.666667 0.749527 Co
0.666670 0.333330 0.250480 Co
0.333337 0.666663 0.583813 Co
0.000003 0.999997 0.917147 Co
0.666670 0.333330 0.130480 Co
0.333337 0.666663 0.463813 Co
0.000003 0.999997 0.797147 Co
0.333330 0.666670 0.298090 Co
0.999997 0.000003 0.631423 Co
0.666663 0.333337 0.964757 Co
0.333330 0.666670 0.178100 Co
0.999997 0.000003 0.511433 Co
0.666663 0.333337 0.844767 Co
0.000000 0.000000 0.345710 Co
0.666667 0.333333 0.679043 Co
0.333333 0.666667 0.012377 Co
0.000000 0.000000 0.488570 Co
0.666667 0.333333 0.821903 Co
0.333333 0.666667 0.155237 Co
0.000000 0.000000 0.774290 Co
0.666667 0.333333 0.107623 Co
0.333333 0.666667 0.440957 Co
0.000000 0.000000 0.060000 Co
0.666667 0.333333 0.393333 Co
0.333333 0.666667 0.726667 Co
0.000000 0.000000 0.225710 Co
0.666667 0.333333 0.559043 Co
0.333333 0.666667 0.892377 Co
0.666670 0.333330 0.273330 Co
0.333337 0.666663 0.606663 Co
0.000003 0.999997 0.939997 Co
0.333330 0.666670 0.320950 Co
0.999997 0.000003 0.654283 Co
0.666663 0.333337 0.987617 Co
0.000000 0.000000 0.368570 Co
0.666667 0.333333 0.701903 Co
0.333333 0.666667 0.035237 Co
0.000000 0.000000 0.184290 O
0.666667 0.333333 0.517623 O
0.333333 0.666667 0.850957 O
0.000000 0.000000 0.101430 O
0.666667 0.333333 0.434763 O
0.333333 0.666667 0.768097 O
0.666670 0.333330 0.231910 O
0.333337 0.666663 0.565243 O
0.000003 0.999997 0.898577 O
0.666670 0.333330 0.149050 O
0.333337 0.666663 0.482383 O
0.000003 0.999997 0.815717 O
0.333330 0.666670 0.279520 O
0.999997 0.000003 0.612853 O
0.666663 0.333337 0.946187 O
0.333330 0.666670 0.196670 O
0.999997 0.000003 0.530003 O
0.666663 0.333337 0.863337 O
0.000000 0.000000 0.327140 O
0.666667 0.333333 0.660473 O
0.333333 0.666667 0.993807 O
0.000000 0.000000 0.470000 O
0.666667 0.333333 0.803333 O
0.333333 0.666667 0.136667 O
0.000000 0.000000 0.755710 O
0.666667 0.333333 0.089043 O
0.333333 0.666667 0.422377 O
0.000000 0.000000 0.041430 O
0.666667 0.333333 0.374763 O
0.333333 0.666667 0.708097 O
0.000000 0.000000 0.244290 O
0.666667 0.333333 0.577623 O
0.333333 0.666667 0.910957 O
0.666670 0.333330 0.291910 O
0.333337 0.666663 0.625243 O
0.000003 0.999997 0.958577 O
0.333330 0.666670 0.339520 O
0.999997 0.000003 0.672853 O
0.666663 0.333337 0.006187 O
0.000000 0.000000 0.387140 O
0.666667 0.333333 0.720473 O
0.333333 0.666667 0.053807 O
0.000000 0.000000 0.160000 O
0.666667 0.333333 0.493333 O
0.333333 0.666667 0.826667 O
0.000000 0.000000 0.125710 O
0.666667 0.333333 0.459043 O
0.333333 0.666667 0.792377 O
0.666670 0.333330 0.207620 O
0.333337 0.666663 0.540953 O
0.000003 0.999997 0.874287 O
0.666670 0.333330 0.173330 O
0.333337 0.666663 0.506663 O
0.000003 0.999997 0.839997 O
0.333330 0.666670 0.255240 O
0.999997 0.000003 0.588573 O
0.666663 0.333337 0.921907 O
0.333330 0.666670 0.220950 O
0.999997 0.000003 0.554283 O
0.666663 0.333337 0.887617 O
0.000000 0.000000 0.302860 O
0.666667 0.333333 0.636193 O
0.333333 0.666667 0.969527 O
0.000000 0.000000 0.445710 O
0.666667 0.333333 0.779043 O
0.333333 0.666667 0.112377 O
0.000000 0.000000 0.731430 O
0.666667 0.333333 0.064763 O
0.333333 0.666667 0.398097 O
0.000000 0.000000 0.017140 O
0.666667 0.333333 0.350473 O
0.333333 0.666667 0.683807 O
0.000000 0.000000 0.268570 O
0.666667 0.333333 0.601903 O
0.333333 0.666667 0.935237 O
0.666670 0.333330 0.316190 O
0.333337 0.666663 0.649523 O
0.000003 0.999997 0.982857 O
0.333330 0.666670 0.363810 O
0.999997 0.000003 0.697143 O
0.666663 0.333337 0.030477 O
0.000000 0.000000 0.411430 O
0.666667 0.333333 0.744763 O
0.333333 0.666667 0.078097 O
