Li15 Co15 O30
1.0
2.815600 0.000000 0.000000
-1.407800 2.438381 0.000000
0.000000 0.000000 70.270996
Li Co O
   6  15  30
direct
0.333330 0.666670 0.266670 Li
0.666670 0.333330 0.733330 Li
0.999997 0.000003 0.600003 Li
0.333337 0.666663 0.066663 Li
0.666663 0.333337 0.933337 Li
0.000003 0.999997 0.399997 Li
0.000000 0.000000 0.300000 Co
0.000000 0.000000 0.700000 Co
0.666667 0.333333 0.633333 Co
0.666667 0.333333 0.033333 Co
0.333333 0.666667 0.966667 Co
0.333333 0.666667 0.366667 Co
0.000000 0.000000 0.100000 Co
0.000000 0.000000 0.900000 Co
0.666667 0.333333 0.433333 Co
0.666667 0.333333 0.233333 Co
0.333333 0.666667 0.766667 Co
0.333333 0.666667 0.566667 Co
0.333330 0.666670 0.166670 Co
0.666670 0.333330 0.833330 Co
0.999997 0.000003 0.500003 Co
0.000000 0.000000 0.247940 O
0.000000 0.000000 0.752060 O
0.666667 0.333333 0.581273 O
0.666667 0.333333 0.085393 O
0.333333 0.666667 0.914607 O
0.333333 0.666667 0.418727 O
0.000000 0.000000 0.152060 O
0.000000 0.000000 0.847940 O
0.666667 0.333333 0.485393 O
0.666667 0.333333 0.181273 O
0.333333 0.666667 0.818727 O
0.333333 0.666667 0.514607 O
0.333330 0.666670 0.314600 O
0.666670 0.333330 0.685400 O
0.999997 0.000003 0.647933 O
0.333337 0.666663 0.018733 O
0.666663 0.333337 0.981267 O
0.000003 0.999997 0.352067 O
0.333330 0.666670 0.218730 O
0.666670 0.333330 0.781270 O
0.999997 0.000003 0.552063 O
0.333337 0.666663 0.114603 O
0.666663 0.333337 0.885397 O
0.000003 0.999997 0.447937 O
0.666670 0.333330 0.381270 O
0.333330 0.666670 0.618730 O
0.333337 0.666663 0.714603 O
0.999997 0.000003 0.952063 O
0.000003 0.999997 0.047937 O
0.666663 0.333337 0.285397 O
