Li24 Co24 O48
1.0
5.631200 0.000000 0.000000
-2.815600 4.876762 0.000000
0.000000 0.000000 28.108400
Li Co O
   6  24  48
direct
0.666670 0.333330 0.083330 Li
0.333330 0.666670 0.916670 Li
0.333337 0.666663 0.416663 Li
0.999997 0.000003 0.250003 Li
0.000003 0.999997 0.749997 Li
0.666663 0.333337 0.583337 Li
0.000000 0.500000 0.000000 Co
0.500000 0.500000 0.000000 Co
0.500000 0.000000 0.000000 Co
0.666667 0.833333 0.333333 Co
0.166667 0.833333 0.333333 Co
0.166667 0.333333 0.333333 Co
0.333333 0.166667 0.666667 Co
0.833333 0.166667 0.666667 Co
0.833333 0.666667 0.666667 Co
0.000000 0.500000 0.500000 Co
0.500000 0.500000 0.500000 Co
0.500000 0.000000 0.500000 Co
0.666667 0.833333 0.833333 Co
0.166667 0.833333 0.833333 Co
0.166667 0.333333 0.833333 Co
0.333333 0.166667 0.166667 Co
0.833333 0.166667 0.166667 Co
0.833333 0.666667 0.166667 Co
0.666670 0.333330 0.333330 Co
0.333330 0.666670 0.666670 Co
0.999997 0.000003 0.000003 Co
0.666670 0.333330 0.833330 Co
0.333330 0.666670 0.166670 Co
0.999997 0.000003 0.500003 Co
0.000000 0.500000 0.869840 O
0.500000 0.500000 0.869840 O
0.500000 0.000000 0.869840 O
0.500000 0.000000 0.130160 O
0.500000 0.500000 0.130160 O
0.000000 0.500000 0.130160 O
0.666667 0.833333 0.203173 O
0.166667 0.833333 0.203173 O
0.166667 0.333333 0.203173 O
0.166667 0.333333 0.463493 O
0.166667 0.833333 0.463493 O
0.666667 0.833333 0.463493 O
0.333333 0.166667 0.536507 O
0.833333 0.166667 0.536507 O
0.833333 0.666667 0.536507 O
0.833333 0.666667 0.796827 O
0.833333 0.166667 0.796827 O
0.333333 0.166667 0.796827 O
0.000000 0.500000 0.630160 O
0.500000 0.500000 0.630160 O
0.500000 0.000000 0.630160 O
0.500000 0.000000 0.369840 O
0.500000 0.500000 0.369840 O
0.000000 0.500000 0.369840 O
0.666667 0.833333 0.963493 O
0.166667 0.833333 0.963493 O
0.166667 0.333333 0.963493 O
0.166667 0.333333 0.703173 O
0.166667 0.833333 0.703173 O
0.666667 0.833333 0.703173 O
0.333333 0.166667 0.296827 O
0.833333 0.166667 0.296827 O
0.833333 0.666667 0.296827 O
0.833333 0.666667 0.036507 O
0.833333 0.166667 0.036507 O
0.333333 0.166667 0.036507 O
0.666670 0.333330 0.203170 O
0.333330 0.666670 0.796830 O
0.333337 0.666663 0.536503 O
0.999997 0.000003 0.130163 O
0.000003 0.999997 0.869837 O
0.666663 0.333337 0.463497 O
0.666670 0.333330 0.963490 O
0.333330 0.666670 0.036510 O
0.333337 0.666663 0.296823 O
0.999997 0.000003 0.369843 O
0.000003 0.999997 0.630157 O
0.666663 0.333337 0.703177 O
