Li54 C324
1.0
12.898500 0.000000 0.000000
-6.449250 11.170429 0.000000
0.000000 0.000000 21.599998
Li C
   12  324
direct
0.111110 0.888890 0.254630 Li
0.111110 0.222220 0.254630 Li
0.777780 0.888890 0.254630 Li
0.777777 0.222223 0.587963 Li
0.777777 0.555553 0.587963 Li
0.444447 0.222223 0.587963 Li
0.444443 0.555557 0.921297 Li
0.444443 0.888887 0.921297 Li
0.111113 0.555557 0.921297 Li
0.333333 0.666667 0.745370 Li
0.000000 0.000000 0.078703 Li
0.666667 0.333333 0.412037 Li
0.888890 0.555560 0.000000 C
0.444440 0.333330 0.000000 C
0.666670 0.111110 0.000000 C
0.555557 0.888893 0.333333 C
0.111107 0.666663 0.333333 C
0.333337 0.444443 0.333333 C
0.222223 0.222227 0.666667 C
0.777773 0.999997 0.666667 C
0.000003 0.777777 0.666667 C
0.777770 0.333333 0.000000 C
0.666667 0.444437 0.000000 C
0.555563 0.222230 0.000000 C
0.444437 0.666667 0.333333 C
0.333333 0.777770 0.333333 C
0.222230 0.555563 0.333333 C
0.111103 0.000000 0.666667 C
0.000000 0.111103 0.666667 C
0.888897 0.888897 0.666667 C
0.000000 0.444440 0.000000 C
0.555560 0.555560 0.000000 C
0.444440 0.000000 0.000000 C
0.666667 0.777773 0.333333 C
0.222227 0.888893 0.333333 C
0.111107 0.333333 0.333333 C
0.333333 0.111107 0.666667 C
0.888893 0.222227 0.666667 C
0.777773 0.666667 0.666667 C
0.222220 0.888890 0.000000 C
0.111110 0.333330 0.000000 C
0.666670 0.777780 0.000000 C
0.888887 0.222223 0.333333 C
0.777777 0.666663 0.333333 C
0.333337 0.111113 0.333333 C
0.555553 0.555557 0.666667 C
0.444443 0.999997 0.666667 C
0.000003 0.444447 0.666667 C
0.222220 0.555560 0.000000 C
0.444440 0.666660 0.000000 C
0.333340 0.777780 0.000000 C
0.888887 0.888893 0.333333 C
0.111107 0.999993 0.333333 C
0.000007 0.111113 0.333333 C
0.555553 0.222227 0.666667 C
0.777773 0.333327 0.666667 C
0.666673 0.444447 0.666667 C
0.888890 0.555560 0.333333 C
0.444440 0.333330 0.333333 C
0.666670 0.111110 0.333333 C
0.555557 0.888893 0.666667 C
0.111107 0.666663 0.666667 C
0.333337 0.444443 0.666667 C
0.222223 0.222227 0.000000 C
0.777773 0.999997 0.000000 C
0.000003 0.777777 0.000000 C
0.888890 0.555560 0.666667 C
0.444440 0.333330 0.666667 C
0.666670 0.111110 0.666667 C
0.555557 0.888893 0.000000 C
0.111107 0.666663 0.000000 C
0.333337 0.444443 0.000000 C
0.222223 0.222227 0.333333 C
0.777773 0.999997 0.333333 C
0.000003 0.777777 0.333333 C
0.888890 0.888890 0.000000 C
0.111110 0.000000 0.000000 C
0.000000 0.111110 0.000000 C
0.555557 0.222223 0.333333 C
0.777777 0.333333 0.333333 C
0.666667 0.444443 0.333333 C
0.222223 0.555557 0.666667 C
0.444443 0.666667 0.666667 C
0.333333 0.777777 0.666667 C
0.222220 0.888890 0.666667 C
0.111110 0.333330 0.666667 C
0.666670 0.777780 0.666667 C
0.888887 0.222223 0.000000 C
0.777777 0.666663 0.000000 C
0.333337 0.111113 0.000000 C
0.555553 0.555557 0.333333 C
0.444443 0.999997 0.333333 C
0.000003 0.444447 0.333333 C
0.000000 0.666667 0.000000 C
0.333333 0.333333 0.000000 C
0.666667 0.000000 0.000000 C
0.666667 0.000000 0.333333 C
0.000000 0.666667 0.333333 C
0.333333 0.333333 0.333333 C
0.333333 0.333333 0.666667 C
0.666667 0.000000 0.666667 C
0.000000 0.666667 0.666667 C
0.666667 0.333333 0.000000 C
0.333333 0.666667 0.333333 C
0.000000 0.000000 0.666667 C
0.000000 0.333333 0.000000 C
0.666667 0.666667 0.000000 C
0.333333 0.000000 0.000000 C
0.666667 0.666667 0.333333 C
0.333333 0.000000 0.333333 C
0.000000 0.333333 0.333333 C
0.333333 0.000000 0.666667 C
0.000000 0.333333 0.666667 C
0.666667 0.666667 0.666667 C
0.777780 0.555560 0.000000 C
0.444440 0.222220 0.000000 C
0.777780 0.222220 0.000000 C
0.444447 0.888893 0.333333 C
0.111107 0.555553 0.333333 C
0.444447 0.555553 0.333333 C
0.111113 0.222227 0.666667 C
0.777773 0.888887 0.666667 C
0.111113 0.888887 0.666667 C
0.111110 0.555560 0.000000 C
0.444440 0.555550 0.000000 C
0.444450 0.888890 0.000000 C
0.777777 0.888893 0.333333 C
0.111107 0.888883 0.333333 C
0.111117 0.222223 0.333333 C
0.444443 0.222227 0.666667 C
0.777773 0.222217 0.666667 C
0.777783 0.555557 0.666667 C
0.333333 0.666667 0.000000 C
0.000000 0.000000 0.333333 C
0.666667 0.333333 0.666667 C
0.111110 0.888890 0.000000 C
0.111110 0.222220 0.000000 C
0.777780 0.888890 0.000000 C
0.777777 0.222223 0.333333 C
0.777777 0.555553 0.333333 C
0.444447 0.222223 0.333333 C
0.444443 0.555557 0.666667 C
0.444443 0.888887 0.666667 C
0.111113 0.555557 0.666667 C
0.000000 0.000000 0.000000 C
0.666667 0.333333 0.333333 C
0.333333 0.666667 0.666667 C
0.666667 0.444440 0.166670 C
0.555560 0.222227 0.166670 C
0.777773 0.333333 0.166670 C
0.333333 0.777773 0.500003 C
0.222227 0.555560 0.500003 C
0.444440 0.666667 0.500003 C
0.000000 0.111107 0.833337 C
0.888893 0.888893 0.833337 C
0.111107 0.000000 0.833337 C
0.888890 0.222220 0.166670 C
0.777780 0.666670 0.166670 C
0.333330 0.111110 0.166670 C
0.555557 0.555553 0.500003 C
0.444447 0.000003 0.500003 C
0.999997 0.444443 0.500003 C
0.222223 0.888887 0.833337 C
0.111113 0.333337 0.833337 C
0.666663 0.777777 0.833337 C
0.111110 0.666667 0.166670 C
0.333333 0.444443 0.166670 C
0.555557 0.888890 0.166670 C
0.777777 0.000000 0.500003 C
0.000000 0.777777 0.500003 C
0.222223 0.222223 0.500003 C
0.444443 0.333333 0.833337 C
0.666667 0.111110 0.833337 C
0.888890 0.555557 0.833337 C
0.111110 0.666667 0.833330 C
0.333333 0.444443 0.833330 C
0.555557 0.888890 0.833330 C
0.777777 0.000000 0.166663 C
0.000000 0.777777 0.166663 C
0.222223 0.222223 0.166663 C
0.444443 0.333333 0.499997 C
0.666667 0.111110 0.499997 C
0.888890 0.555557 0.499997 C
0.888890 0.222220 0.833330 C
0.777780 0.666670 0.833330 C
0.333330 0.111110 0.833330 C
0.555557 0.555553 0.166663 C
0.444447 0.000003 0.166663 C
0.999997 0.444443 0.166663 C
0.222223 0.888887 0.499997 C
0.111113 0.333337 0.499997 C
0.666663 0.777777 0.499997 C
0.666667 0.444440 0.833330 C
0.555560 0.222227 0.833330 C
0.777773 0.333333 0.833330 C
0.333333 0.777773 0.166663 C
0.222227 0.555560 0.166663 C
0.444440 0.666667 0.166663 C
0.000000 0.111107 0.499997 C
0.888893 0.888893 0.499997 C
0.111107 0.000000 0.499997 C
0.666667 0.444440 0.500000 C
0.555560 0.222227 0.500000 C
0.777773 0.333333 0.500000 C
0.333333 0.777773 0.833333 C
0.222227 0.555560 0.833333 C
0.444440 0.666667 0.833333 C
0.000000 0.111107 0.166667 C
0.888893 0.888893 0.166667 C
0.111107 0.000000 0.166667 C
0.444440 0.000000 0.833330 C
0.000000 0.444440 0.833330 C
0.555560 0.555560 0.833330 C
0.111107 0.333333 0.166663 C
0.666667 0.777773 0.166663 C
0.222227 0.888893 0.166663 C
0.777773 0.666667 0.499997 C
0.333333 0.111107 0.499997 C
0.888893 0.222227 0.499997 C
0.000000 0.777780 0.833330 C
0.222220 0.222220 0.833330 C
0.777780 0.000000 0.833330 C
0.666667 0.111113 0.166663 C
0.888887 0.555553 0.166663 C
0.444447 0.333333 0.166663 C
0.333333 0.444447 0.499997 C
0.555553 0.888887 0.499997 C
0.111113 0.666667 0.499997 C
0.888890 0.666667 0.166670 C
0.333333 0.222223 0.166670 C
0.777777 0.111110 0.166670 C
0.555557 0.000000 0.500003 C
0.000000 0.555557 0.500003 C
0.444443 0.444443 0.500003 C
0.222223 0.333333 0.833337 C
0.666667 0.888890 0.833337 C
0.111110 0.777777 0.833337 C
0.666667 0.222230 0.166670 C
0.777770 0.444437 0.166670 C
0.555563 0.333333 0.166670 C
0.333333 0.555563 0.500003 C
0.444437 0.777770 0.500003 C
0.222230 0.666667 0.500003 C
0.000000 0.888897 0.833337 C
0.111103 0.111103 0.833337 C
0.888897 0.000000 0.833337 C
0.111100 0.444440 0.166670 C
0.555560 0.666660 0.166670 C
0.333340 0.888900 0.166670 C
0.777767 0.777773 0.500003 C
0.222227 0.999993 0.500003 C
0.000007 0.222233 0.500003 C
0.444433 0.111107 0.833337 C
0.888893 0.333327 0.833337 C
0.666673 0.555567 0.833337 C
0.888890 0.666667 0.833330 C
0.333333 0.222223 0.833330 C
0.777777 0.111110 0.833330 C
0.555557 0.000000 0.166663 C
0.000000 0.555557 0.166663 C
0.444443 0.444443 0.166663 C
0.222223 0.333333 0.499997 C
0.666667 0.888890 0.499997 C
0.111110 0.777777 0.499997 C
0.111100 0.444440 0.833330 C
0.555560 0.666660 0.833330 C
0.333340 0.888900 0.833330 C
0.777767 0.777773 0.166663 C
0.222227 0.999993 0.166663 C
0.000007 0.222233 0.166663 C
0.444433 0.111107 0.499997 C
0.888893 0.333327 0.499997 C
0.666673 0.555567 0.499997 C
0.666667 0.222230 0.833330 C
0.777770 0.444437 0.833330 C
0.555563 0.333333 0.833330 C
0.333333 0.555563 0.166663 C
0.444437 0.777770 0.166663 C
0.222230 0.666667 0.166663 C
0.000000 0.888897 0.499997 C
0.111103 0.111103 0.499997 C
0.888897 0.000000 0.499997 C
0.888890 0.666667 0.500000 C
0.333333 0.222223 0.500000 C
0.777777 0.111110 0.500000 C
0.555557 0.000000 0.833333 C
0.000000 0.555557 0.833333 C
0.444443 0.444443 0.833333 C
0.222223 0.333333 0.166667 C
0.666667 0.888890 0.166667 C
0.111110 0.777777 0.166667 C
0.222220 0.000000 0.833330 C
0.000000 0.222220 0.833330 C
0.777780 0.777780 0.833330 C
0.888887 0.333333 0.166663 C
0.666667 0.555553 0.166663 C
0.444447 0.111113 0.166663 C
0.555553 0.666667 0.499997 C
0.333333 0.888887 0.499997 C
0.111113 0.444447 0.499997 C
0.444440 0.777780 0.833330 C
0.222220 0.666660 0.833330 C
0.333340 0.555560 0.833330 C
0.111107 0.111113 0.166663 C
0.888887 0.999993 0.166663 C
0.000007 0.888893 0.166663 C
0.777773 0.444447 0.499997 C
0.555553 0.333327 0.499997 C
0.666673 0.222227 0.499997 C
0.888890 0.444440 0.000000 C
0.555560 0.444450 0.000000 C
0.555550 0.111110 0.000000 C
0.555557 0.777773 0.333333 C
0.222227 0.777783 0.333333 C
0.222217 0.444443 0.333333 C
0.222223 0.111107 0.666667 C
0.888893 0.111117 0.666667 C
0.888883 0.777777 0.666667 C
0.222220 0.777780 0.000000 C
0.222220 0.444440 0.000000 C
0.555560 0.777780 0.000000 C
0.888887 0.111113 0.333333 C
0.888887 0.777773 0.333333 C
0.222227 0.111113 0.333333 C
0.555553 0.444447 0.666667 C
0.555553 0.111107 0.666667 C
0.888893 0.444447 0.666667 C
0.888890 0.444440 0.333333 C
0.555560 0.444450 0.333333 C
0.555550 0.111110 0.333333 C
0.555557 0.777773 0.666667 C
0.222227 0.777783 0.666667 C
0.222217 0.444443 0.666667 C
0.222223 0.111107 0.000000 C
0.888893 0.111117 0.000000 C
0.888883 0.777777 0.000000 C
