Li15 Co30 O60
1.0
2.780000 0.000000 0.000000
-1.390000 2.407551 0.000000
0.000000 0.000000 129.750000
Li Co O
   12  30  60
direct
0.000000 0.000000 0.200000 Li
0.000000 0.000000 0.800000 Li
0.666667 0.333333 0.533333 Li
0.666667 0.333333 0.133333 Li
0.333333 0.666667 0.866667 Li
0.333333 0.666667 0.466667 Li
0.333330 0.666670 0.266670 Li
0.666670 0.333330 0.733330 Li
0.999997 0.000003 0.600003 Li
0.333337 0.666663 0.066663 Li
0.666663 0.333337 0.933337 Li
0.000003 0.999997 0.399997 Li
0.000000 0.000000 0.284000 Co
0.000000 0.000000 0.716000 Co
0.666667 0.333333 0.617333 Co
0.666667 0.333333 0.049333 Co
0.333333 0.666667 0.950667 Co
0.333333 0.666667 0.382667 Co
0.000000 0.000000 0.116000 Co
0.000000 0.000000 0.884000 Co
0.666667 0.333333 0.449333 Co
0.666667 0.333333 0.217333 Co
0.333333 0.666667 0.782667 Co
0.333333 0.666667 0.550667 Co
0.333330 0.666670 0.350670 Co
0.666670 0.333330 0.649330 Co
0.999997 0.000003 0.684003 Co
0.333337 0.666663 0.982663 Co
0.666663 0.333337 0.017337 Co
0.000003 0.999997 0.315997 Co
0.333330 0.666670 0.182670 Co
0.666670 0.333330 0.817330 Co
0.999997 0.000003 0.516003 Co
0.333337 0.666663 0.150663 Co
0.666663 0.333337 0.849337 Co
0.000003 0.999997 0.483997 Co
0.666670 0.333330 0.417330 Co
0.333330 0.666670 0.582670 Co
0.333337 0.666663 0.750663 Co
0.999997 0.000003 0.916003 Co
0.000003 0.999997 0.083997 Co
0.666663 0.333337 0.249337 Co
0.000000 0.000000 0.258000 O
0.000000 0.000000 0.742000 O
0.666667 0.333333 0.591333 O
0.666667 0.333333 0.075333 O
0.333333 0.666667 0.924667 O
0.333333 0.666667 0.408667 O
0.000000 0.000000 0.142000 O
0.000000 0.000000 0.858000 O
0.666667 0.333333 0.475333 O
0.666667 0.333333 0.191333 O
0.333333 0.666667 0.808667 O
0.333333 0.666667 0.524667 O
0.333330 0.666670 0.324670 O
0.666670 0.333330 0.675330 O
0.999997 0.000003 0.658003 O
0.333337 0.666663 0.008663 O
0.666663 0.333337 0.991337 O
0.000003 0.999997 0.341997 O
0.333330 0.666670 0.208670 O
0.666670 0.333330 0.791330 O
0.999997 0.000003 0.542003 O
0.333337 0.666663 0.124663 O
0.666663 0.333337 0.875337 O
0.000003 0.999997 0.457997 O
0.666670 0.333330 0.391330 O
0.333330 0.666670 0.608670 O
0.333337 0.666663 0.724663 O
0.999997 0.000003 0.942003 O
0.000003 0.999997 0.057997 O
0.666663 0.333337 0.275337 O
0.000000 0.000000 0.224000 O
0.000000 0.000000 0.776000 O
0.666667 0.333333 0.557333 O
0.666667 0.333333 0.109333 O
0.333333 0.666667 0.890667 O
0.333333 0.666667 0.442667 O
0.000000 0.000000 0.176000 O
0.000000 0.000000 0.824000 O
0.666667 0.333333 0.509333 O
0.666667 0.333333 0.157333 O
0.333333 0.666667 0.842667 O
0.333333 0.666667 0.490667 O
0.333330 0.666670 0.290670 O
0.666670 0.333330 0.709330 O
0.999997 0.000003 0.624003 O
0.333337 0.666663 0.042663 O
0.666663 0.333337 0.957337 O
0.000003 0.999997 0.375997 O
0.333330 0.666670 0.242670 O
0.666670 0.333330 0.757330 O
0.999997 0.000003 0.576003 O
0.333337 0.666663 0.090663 O
0.666663 0.333337 0.909337 O
0.000003 0.999997 0.423997 O
0.666670 0.333330 0.357330 O
0.333330 0.666670 0.642670 O
0.333337 0.666663 0.690663 O
0.999997 0.000003 0.976003 O
0.000003 0.999997 0.023997 O
0.666663 0.333337 0.309337 O
