Li6 C36
1.0
7.488164 0.000000 0.000000
-3.744082 6.484940 0.000000
0.000000 0.000000 7.490736
Li C
   3  36
direct
0.333333 0.666667 0.750000 Li
0.666667 0.333333 0.750000 Li
0.000000 0.000000 0.750000 Li
0.222150 0.777850 0.000000 C
0.222150 0.444300 0.000000 C
0.555700 0.777850 0.000000 C
0.777850 0.222150 0.000000 C
0.777850 0.555700 0.000000 C
0.444300 0.222150 0.000000 C
0.444520 0.555480 0.000000 C
0.444520 0.889040 0.000000 C
0.110960 0.555480 0.000000 C
0.555480 0.444520 0.000000 C
0.555480 0.110960 0.000000 C
0.889040 0.444520 0.000000 C
0.555700 0.777850 0.500000 C
0.222150 0.777850 0.500000 C
0.222150 0.444300 0.500000 C
0.444300 0.222150 0.500000 C
0.777850 0.222150 0.500000 C
0.777850 0.555700 0.500000 C
0.110970 0.555480 0.500000 C
0.444520 0.555490 0.500000 C
0.444510 0.889030 0.500000 C
0.889030 0.444520 0.500000 C
0.555480 0.444510 0.500000 C
0.555490 0.110970 0.500000 C
0.888820 0.111180 0.000000 C
0.888820 0.777640 0.000000 C
0.222360 0.111180 0.000000 C
0.111180 0.888820 0.000000 C
0.111180 0.222360 0.000000 C
0.777640 0.888820 0.000000 C
0.222370 0.111180 0.500000 C
0.888820 0.111190 0.500000 C
0.888810 0.777630 0.500000 C
0.777630 0.888820 0.500000 C
0.111180 0.888810 0.500000 C
0.111190 0.222370 0.500000 C
