Li21 Co21 O42
1.0
2.815600 0.000000 0.000000
-1.407800 2.438381 0.000000
0.000000 0.000000 98.379402
Li Co O
   12  21  42
direct
0.666670 0.333330 0.047620 Li
0.333337 0.666663 0.380953 Li
0.000003 0.999997 0.714287 Li
0.000000 0.000000 0.142860 Li
0.666667 0.333333 0.476193 Li
0.333333 0.666667 0.809527 Li
0.000000 0.000000 0.285710 Li
0.666667 0.333333 0.619043 Li
0.333333 0.666667 0.952377 Li
0.000000 0.000000 0.857140 Li
0.666667 0.333333 0.190473 Li
0.333333 0.666667 0.523807 Li
0.000000 0.000000 0.071430 Co
0.666667 0.333333 0.404763 Co
0.333333 0.666667 0.738097 Co
0.000000 0.000000 0.928570 Co
0.666667 0.333333 0.261903 Co
0.333333 0.666667 0.595237 Co
0.666670 0.333330 0.119050 Co
0.333337 0.666663 0.452383 Co
0.000003 0.999997 0.785717 Co
0.666670 0.333330 0.976190 Co
0.333337 0.666663 0.309523 Co
0.000003 0.999997 0.642857 Co
0.333330 0.666670 0.166670 Co
0.999997 0.000003 0.500003 Co
0.666663 0.333337 0.833337 Co
0.333330 0.666670 0.023810 Co
0.999997 0.000003 0.357143 Co
0.666663 0.333337 0.690477 Co
0.000000 0.000000 0.214290 Co
0.666667 0.333333 0.547623 Co
0.333333 0.666667 0.880957 Co
0.000000 0.000000 0.034240 O
0.666667 0.333333 0.367573 O
0.333333 0.666667 0.700907 O
0.000000 0.000000 0.965760 O
0.666667 0.333333 0.299093 O
0.333333 0.666667 0.632427 O
0.666670 0.333330 0.081860 O
0.333337 0.666663 0.415193 O
0.000003 0.999997 0.748527 O
0.666670 0.333330 0.013380 O
0.333337 0.666663 0.346713 O
0.000003 0.999997 0.680047 O
0.333330 0.666670 0.129480 O
0.999997 0.000003 0.462813 O
0.666663 0.333337 0.796147 O
0.333330 0.666670 0.061000 O
0.999997 0.000003 0.394333 O
0.666663 0.333337 0.727667 O
0.000000 0.000000 0.177100 O
0.666667 0.333333 0.510433 O
0.333333 0.666667 0.843767 O
0.000000 0.000000 0.319950 O
0.666667 0.333333 0.653283 O
0.333333 0.666667 0.986617 O
0.000000 0.000000 0.605670 O
0.666667 0.333333 0.939003 O
0.333333 0.666667 0.272337 O
0.000000 0.000000 0.891380 O
0.666667 0.333333 0.224713 O
0.333333 0.666667 0.558047 O
0.000000 0.000000 0.108620 O
0.666667 0.333333 0.441953 O
0.333333 0.666667 0.775287 O
0.666670 0.333330 0.156240 O
0.333337 0.666663 0.489573 O
0.000003 0.999997 0.822907 O
0.333330 0.666670 0.203860 O
0.999997 0.000003 0.537193 O
0.666663 0.333337 0.870527 O
0.000000 0.000000 0.251470 O
0.666667 0.333333 0.584803 O
0.333333 0.666667 0.918137 O
