Li24 Co24 O48
1.0
2.815600 0.000000 0.000000
-1.407800 2.438381 0.000000
0.000000 0.000000 112.433601
Li Co O
   12  24  48
direct
0.000000 0.000000 0.562500 Li
0.000000 0.000000 0.937500 Li
0.000000 0.000000 0.437500 Li
0.000000 0.000000 0.062500 Li
0.666667 0.333333 0.895833 Li
0.666667 0.333333 0.270833 Li
0.666667 0.333333 0.770833 Li
0.666667 0.333333 0.395833 Li
0.333333 0.666667 0.229167 Li
0.333333 0.666667 0.604167 Li
0.333333 0.666667 0.104167 Li
0.333333 0.666667 0.729167 Li
0.000000 0.000000 0.625000 Co
0.000000 0.000000 0.875000 Co
0.000000 0.000000 0.375000 Co
0.000000 0.000000 0.125000 Co
0.666667 0.333333 0.958333 Co
0.666667 0.333333 0.208333 Co
0.666667 0.333333 0.708333 Co
0.666667 0.333333 0.458333 Co
0.333333 0.666667 0.291667 Co
0.333333 0.666667 0.541667 Co
0.333333 0.666667 0.041667 Co
0.333333 0.666667 0.791667 Co
0.000000 0.000000 0.500000 Co
0.000000 0.000000 0.000000 Co
0.666667 0.333333 0.833333 Co
0.666667 0.333333 0.333333 Co
0.333333 0.666667 0.166667 Co
0.333333 0.666667 0.666667 Co
0.666670 0.333330 0.583330 Co
0.333330 0.666670 0.916670 Co
0.333330 0.666670 0.416670 Co
0.666670 0.333330 0.083330 Co
0.999997 0.000003 0.250003 Co
0.999997 0.000003 0.750003 Co
0.000000 0.000000 0.592460 O
0.000000 0.000000 0.907540 O
0.000000 0.000000 0.407540 O
0.000000 0.000000 0.092460 O
0.666667 0.333333 0.925793 O
0.666667 0.333333 0.240873 O
0.666667 0.333333 0.740873 O
0.666667 0.333333 0.425793 O
0.333333 0.666667 0.259127 O
0.333333 0.666667 0.574207 O
0.333333 0.666667 0.074207 O
0.333333 0.666667 0.759127 O
0.000000 0.000000 0.532540 O
0.000000 0.000000 0.967460 O
0.000000 0.000000 0.467460 O
0.000000 0.000000 0.032540 O
0.666667 0.333333 0.865873 O
0.666667 0.333333 0.300793 O
0.666667 0.333333 0.800793 O
0.666667 0.333333 0.365873 O
0.333333 0.666667 0.199207 O
0.333333 0.666667 0.634127 O
0.333333 0.666667 0.134127 O
0.333333 0.666667 0.699207 O
0.666670 0.333330 0.675790 O
0.333330 0.666670 0.824210 O
0.333330 0.666670 0.324210 O
0.666670 0.333330 0.175790 O
0.333337 0.666663 0.009123 O
0.999997 0.000003 0.157543 O
0.999997 0.000003 0.657543 O
0.333337 0.666663 0.509123 O
0.000003 0.999997 0.342457 O
0.666663 0.333337 0.490877 O
0.666663 0.333337 0.990877 O
0.000003 0.999997 0.842457 O
0.666670 0.333330 0.615870 O
0.333330 0.666670 0.884130 O
0.333330 0.666670 0.384130 O
0.666670 0.333330 0.115870 O
0.333337 0.666663 0.949203 O
0.999997 0.000003 0.217463 O
0.999997 0.000003 0.717463 O
0.333337 0.666663 0.449203 O
0.000003 0.999997 0.282537 O
0.666663 0.333337 0.550797 O
0.666663 0.333337 0.050797 O
0.000003 0.999997 0.782537 O
