Li8 Co8 O16
1.0
2.429255 0.000000 9.193919
-0.000000 2.815600 0.000000
0.000000 0.000000 37.618622
Li Co O
   4  8  16
direct
0.250000 0.000000 0.125000 Li
0.750000 0.000000 0.875000 Li
0.750000 0.500000 0.125000 Li
0.250000 0.500000 0.875000 Li
0.000000 0.000000 0.000000 Co
0.500000 0.500000 0.000000 Co
0.500000 0.000000 0.250000 Co
0.500000 0.000000 0.750000 Co
0.000000 0.500000 0.250000 Co
0.000000 0.500000 0.750000 Co
0.000000 0.000000 0.500000 Co
0.500000 0.500000 0.500000 Co
0.130160 0.000000 0.065080 O
0.869840 0.000000 0.934920 O
0.630160 0.500000 0.065080 O
0.369840 0.500000 0.934920 O
0.369840 0.000000 0.184920 O
0.630160 0.000000 0.815080 O
0.869840 0.500000 0.184920 O
0.130160 0.500000 0.815080 O
0.130160 0.000000 0.565080 O
0.869840 0.000000 0.434920 O
0.630160 0.500000 0.565080 O
0.369840 0.500000 0.434920 O
0.130160 0.500000 0.315080 O
0.869840 0.500000 0.684920 O
0.630160 0.000000 0.315080 O
0.369840 0.000000 0.684920 O
