Li8 Co8 O16
1.0
3.251200 0.000000 -32.793131
0.000000 5.631200 0.000000
0.000000 0.000000 14.054200
Li Co O
   1  8  16
direct
0.500000 0.000000 0.500000 Li
0.000000 0.000000 0.500000 Co
0.750000 0.750000 0.250000 Co
0.250000 0.750000 0.750000 Co
0.250000 0.250000 0.750000 Co
0.750000 0.250000 0.250000 Co
0.500000 0.500000 0.000000 Co
0.500000 0.000000 0.000000 Co
0.000000 0.500000 0.500000 Co
0.000000 0.000000 0.239680 O
0.000000 0.000000 0.760320 O
0.750000 0.750000 0.989680 O
0.250000 0.750000 0.010320 O
0.250000 0.250000 0.010320 O
0.750000 0.250000 0.989680 O
0.750000 0.750000 0.510320 O
0.250000 0.750000 0.489680 O
0.250000 0.250000 0.489680 O
0.750000 0.250000 0.510320 O
0.500000 0.500000 0.739680 O
0.500000 0.500000 0.260320 O
0.500000 0.000000 0.739680 O
0.500000 0.000000 0.260320 O
0.000000 0.500000 0.239680 O
0.000000 0.500000 0.760320 O
