Li4 Co4 O8
1.0
1.625709 0.000000 -37.477864
0.000000 2.815600 0.000000
0.000000 0.000000 28.108400
Li Co O
   2  4  8
direct
0.500000 0.500000 0.500000 Li
0.000000 0.000000 0.500000 Li
0.000000 0.000000 0.250000 Co
0.000000 0.000000 0.750000 Co
0.500000 0.500000 0.250000 Co
0.500000 0.500000 0.750000 Co
0.000000 0.000000 0.119840 O
0.000000 0.000000 0.880160 O
0.500000 0.500000 0.119840 O
0.500000 0.500000 0.880160 O
0.500000 0.500000 0.619840 O
0.500000 0.500000 0.380160 O
0.000000 0.000000 0.619840 O
0.000000 0.000000 0.380160 O
