Li3 C18
1.0
4.323294 0.000000 0.000000
-2.161647 3.744082 0.000000
0.000000 0.000000 11.236103
Li C
   1  18
direct
0.000000 0.000000 0.666667 Li
0.000000 0.333550 0.166670 C
0.666450 0.666450 0.166670 C
0.333550 0.000000 0.166670 C
0.000000 0.666450 0.166670 C
0.333550 0.333550 0.166670 C
0.666450 0.000000 0.166670 C
0.333550 0.000000 0.833330 C
0.000000 0.333550 0.833330 C
0.666450 0.666450 0.833330 C
0.666450 0.000000 0.833330 C
0.000000 0.666450 0.833330 C
0.333550 0.333550 0.833330 C
0.000000 0.333550 0.500000 C
0.666450 0.666450 0.500000 C
0.333550 0.000000 0.500000 C
0.000000 0.666450 0.500000 C
0.333550 0.333550 0.500000 C
0.666450 0.000000 0.500000 C
