Li18 C108
1.0
7.446952 0.000000 0.000000
-3.723476 6.449250 0.000000
0.000000 0.000000 21.599998
Li C
   9  108
direct
0.666667 0.666667 0.587960 Li
0.333333 0.000000 0.254627 Li
0.000000 0.333333 0.921293 Li
0.333333 0.000000 0.587960 Li
0.000000 0.333333 0.254627 Li
0.666667 0.666667 0.921293 Li
0.666667 0.000000 0.078710 Li
0.000000 0.666667 0.745377 Li
0.333333 0.333333 0.412043 Li
0.111120 0.222220 0.333333 C
0.777780 0.888900 0.000000 C
0.111100 0.888880 0.666667 C
0.777780 0.888890 0.333333 C
0.111110 0.888890 0.000000 C
0.111110 0.222220 0.666667 C
0.111110 0.888880 0.333333 C
0.111120 0.222230 0.000000 C
0.777770 0.888890 0.666667 C
0.777780 0.555560 0.333333 C
0.444440 0.222220 0.000000 C
0.777780 0.222220 0.666667 C
0.444450 0.888890 0.333333 C
0.111110 0.555560 0.000000 C
0.444440 0.555550 0.666667 C
0.444440 0.222230 0.333333 C
0.777770 0.222210 0.000000 C
0.777790 0.555560 0.666667 C
0.777770 0.222220 0.333333 C
0.777780 0.555550 0.000000 C
0.444450 0.222230 0.666667 C
0.111110 0.555560 0.333333 C
0.444440 0.555550 0.000000 C
0.444450 0.888890 0.666667 C
0.444440 0.555550 0.333333 C
0.444450 0.888890 0.000000 C
0.111110 0.555560 0.666667 C
0.333333 0.333333 0.333333 C
0.666667 0.000000 0.000000 C
0.000000 0.666667 0.666667 C
0.666667 0.000000 0.333333 C
0.000000 0.666667 0.000000 C
0.333333 0.333333 0.666667 C
0.000000 0.666667 0.333333 C
0.333333 0.333333 0.000000 C
0.666667 0.000000 0.666667 C
0.000000 0.333333 0.333333 C
0.666667 0.666667 0.000000 C
0.333333 0.000000 0.666667 C
0.333333 0.000000 0.333333 C
0.000000 0.333333 0.000000 C
0.666667 0.666667 0.666667 C
0.666667 0.666667 0.333333 C
0.333333 0.000000 0.000000 C
0.000000 0.333333 0.666667 C
0.777780 0.222220 0.500000 C
0.777780 0.555560 0.166667 C
0.444440 0.222220 0.833333 C
0.777780 0.555560 0.500000 C
0.444440 0.222220 0.166667 C
0.777780 0.222220 0.833333 C
0.444440 0.222220 0.500000 C
0.777780 0.222220 0.166667 C
0.777780 0.555560 0.833333 C
0.444440 0.555560 0.500000 C
0.444440 0.888880 0.166667 C
0.111120 0.555560 0.833333 C
0.111110 0.888890 0.500000 C
0.111110 0.222220 0.166667 C
0.777780 0.888890 0.833333 C
0.444440 0.888890 0.500000 C
0.111110 0.555550 0.166667 C
0.444450 0.555560 0.833333 C
0.111110 0.555560 0.500000 C
0.444440 0.555550 0.166667 C
0.444450 0.888890 0.833333 C
0.111110 0.222220 0.500000 C
0.777780 0.888890 0.166667 C
0.111110 0.888890 0.833333 C
0.777780 0.888890 0.500000 C
0.111110 0.888890 0.166667 C
0.111110 0.222220 0.833333 C
0.222220 0.444430 0.500000 C
0.555570 0.777790 0.166667 C
0.222210 0.777780 0.833333 C
0.555570 0.777780 0.500000 C
0.222220 0.777790 0.166667 C
0.222210 0.444430 0.833333 C
0.222220 0.777780 0.500000 C
0.222220 0.444440 0.166667 C
0.555560 0.777780 0.833333 C
0.888880 0.777770 0.500000 C
0.222230 0.111110 0.166667 C
0.888890 0.111120 0.833333 C
0.555550 0.111100 0.500000 C
0.888900 0.444450 0.166667 C
0.555550 0.444450 0.833333 C
0.222230 0.111120 0.500000 C
0.888880 0.111110 0.166667 C
0.888890 0.777770 0.833333 C
0.888880 0.111120 0.500000 C
0.888880 0.777760 0.166667 C
0.222240 0.111120 0.833333 C
0.888900 0.444450 0.500000 C
0.555550 0.444450 0.166667 C
0.555550 0.111100 0.833333 C
0.555550 0.444450 0.500000 C
0.555550 0.111100 0.166667 C
0.888900 0.444450 0.833333 C
0.000000 0.000000 0.333333 C
0.000000 0.000000 0.000000 C
0.000000 0.000000 0.666667 C
0.666667 0.333333 0.333333 C
0.666667 0.333333 0.000000 C
0.666667 0.333333 0.666667 C
0.333333 0.666667 0.333333 C
0.333333 0.666667 0.000000 C
0.333333 0.666667 0.666667 C
