Li8 Co8 O16
1.0
4.858403 0.000000 -74.815776
0.000000 2.815600 0.000000
0.000000 0.000000 18.809311
Li Co O
   4  8  16
direct
0.125000 0.500000 0.625000 Li
0.875000 0.500000 0.375000 Li
0.625000 0.000000 0.625000 Li
0.375000 0.000000 0.375000 Li
0.000000 0.000000 0.000000 Co
0.500000 0.500000 0.000000 Co
0.750000 0.000000 0.750000 Co
0.250000 0.000000 0.250000 Co
0.250000 0.500000 0.750000 Co
0.750000 0.500000 0.250000 Co
0.000000 0.500000 0.500000 Co
0.500000 0.000000 0.500000 Co
0.934920 0.000000 0.934920 O
0.065080 0.000000 0.065080 O
0.434920 0.500000 0.934920 O
0.565080 0.500000 0.065080 O
0.815080 0.000000 0.815080 O
0.184920 0.000000 0.184920 O
0.315080 0.500000 0.815080 O
0.684920 0.500000 0.184920 O
0.184920 0.500000 0.684920 O
0.815080 0.500000 0.315080 O
0.684920 0.000000 0.684920 O
0.315080 0.000000 0.315080 O
0.065080 0.500000 0.565080 O
0.934920 0.500000 0.434920 O
0.565080 0.000000 0.565080 O
0.434920 0.000000 0.434920 O
