Li21 Co42 O84
1.0
2.780000 0.000000 0.000000
-1.390000 2.407551 0.000000
0.000000 0.000000 181.650009
Li Co O
   12  42  84
direct
0.000000 0.000000 0.571430 Li
0.666667 0.333333 0.904763 Li
0.333333 0.666667 0.238097 Li
0.333330 0.666670 0.666670 Li
0.999997 0.000003 0.000003 Li
0.666663 0.333337 0.333337 Li
0.000000 0.000000 0.857140 Li
0.666667 0.333333 0.190473 Li
0.333333 0.666667 0.523807 Li
0.000000 0.000000 0.428570 Li
0.666667 0.333333 0.761903 Li
0.333333 0.666667 0.095237 Li
0.000000 0.000000 0.631430 Co
0.666667 0.333333 0.964763 Co
0.333333 0.666667 0.298097 Co
0.000000 0.000000 0.511430 Co
0.666667 0.333333 0.844763 Co
0.333333 0.666667 0.178097 Co
0.666670 0.333330 0.679050 Co
0.333337 0.666663 0.012383 Co
0.000003 0.999997 0.345717 Co
0.666670 0.333330 0.559050 Co
0.333337 0.666663 0.892383 Co
0.000003 0.999997 0.225717 Co
0.333330 0.666670 0.726670 Co
0.999997 0.000003 0.060003 Co
0.666663 0.333337 0.393337 Co
0.333330 0.666670 0.606670 Co
0.999997 0.000003 0.940003 Co
0.666663 0.333337 0.273337 Co
0.000000 0.000000 0.774290 Co
0.666667 0.333333 0.107623 Co
0.333333 0.666667 0.440957 Co
0.000000 0.000000 0.917140 Co
0.666667 0.333333 0.250473 Co
0.333333 0.666667 0.583807 Co
0.000000 0.000000 0.202860 Co
0.666667 0.333333 0.536193 Co
0.333333 0.666667 0.869527 Co
0.000000 0.000000 0.488570 Co
0.666667 0.333333 0.821903 Co
0.333333 0.666667 0.155237 Co
0.000000 0.000000 0.654290 Co
0.666667 0.333333 0.987623 Co
0.333333 0.666667 0.320957 Co
0.666670 0.333330 0.701910 Co
0.333337 0.666663 0.035243 Co
0.000003 0.999997 0.368577 Co
0.333330 0.666670 0.749520 Co
0.999997 0.000003 0.082853 Co
0.666663 0.333337 0.416187 Co
0.000000 0.000000 0.797140 Co
0.666667 0.333333 0.130473 Co
0.333333 0.666667 0.463807 Co
0.000000 0.000000 0.612860 O
0.666667 0.333333 0.946193 O
0.333333 0.666667 0.279527 O
0.000000 0.000000 0.530000 O
0.666667 0.333333 0.863333 O
0.333333 0.666667 0.196667 O
0.666670 0.333330 0.660480 O
0.333337 0.666663 0.993813 O
0.000003 0.999997 0.327147 O
0.666670 0.333330 0.577620 O
0.333337 0.666663 0.910953 O
0.000003 0.999997 0.244287 O
0.333330 0.666670 0.708100 O
0.999997 0.000003 0.041433 O
0.666663 0.333337 0.374767 O
0.333330 0.666670 0.625240 O
0.999997 0.000003 0.958573 O
0.666663 0.333337 0.291907 O
0.000000 0.000000 0.755710 O
0.666667 0.333333 0.089043 O
0.333333 0.666667 0.422377 O
0.000000 0.000000 0.898570 O
0.666667 0.333333 0.231903 O
0.333333 0.666667 0.565237 O
0.000000 0.000000 0.184290 O
0.666667 0.333333 0.517623 O
0.333333 0.666667 0.850957 O
0.000000 0.000000 0.470000 O
0.666667 0.333333 0.803333 O
0.333333 0.666667 0.136667 O
0.000000 0.000000 0.672860 O
0.666667 0.333333 0.006193 O
0.333333 0.666667 0.339527 O
0.666670 0.333330 0.720480 O
0.333337 0.666663 0.053813 O
0.000003 0.999997 0.387147 O
0.333330 0.666670 0.768090 O
0.999997 0.000003 0.101423 O
0.666663 0.333337 0.434757 O
0.000000 0.000000 0.815710 O
0.666667 0.333333 0.149043 O
0.333333 0.666667 0.482377 O
0.000000 0.000000 0.588570 O
0.666667 0.333333 0.921903 O
0.333333 0.666667 0.255237 O
0.000000 0.000000 0.554290 O
0.666667 0.333333 0.887623 O
0.333333 0.666667 0.220957 O
0.666670 0.333330 0.636190 O
0.333337 0.666663 0.969523 O
0.000003 0.999997 0.302857 O
0.666670 0.333330 0.601910 O
0.333337 0.666663 0.935243 O
0.000003 0.999997 0.268577 O
0.333330 0.666670 0.683810 O
0.999997 0.000003 0.017143 O
0.666663 0.333337 0.350477 O
0.333330 0.666670 0.649520 O
0.999997 0.000003 0.982853 O
0.666663 0.333337 0.316187 O
0.000000 0.000000 0.731430 O
0.666667 0.333333 0.064763 O
0.333333 0.666667 0.398097 O
0.000000 0.000000 0.874290 O
0.666667 0.333333 0.207623 O
0.333333 0.666667 0.540957 O
0.000000 0.000000 0.160000 O
0.666667 0.333333 0.493333 O
0.333333 0.666667 0.826667 O
0.000000 0.000000 0.445710 O
0.666667 0.333333 0.779043 O
0.333333 0.666667 0.112377 O
0.000000 0.000000 0.697140 O
0.666667 0.333333 0.030473 O
0.333333 0.666667 0.363807 O
0.666670 0.333330 0.744760 O
0.333337 0.666663 0.078093 O
0.000003 0.999997 0.411427 O
0.333330 0.666670 0.792380 O
0.999997 0.000003 0.125713 O
0.666663 0.333337 0.459047 O
0.000000 0.000000 0.840000 O
0.666667 0.333333 0.173333 O
0.333333 0.666667 0.506667 O
