Li8 Co8 O16
1.0
2.429302 0.000000 -46.812539
0.000000 2.815600 0.000000
0.000000 0.000000 37.618622
Li Co O
   4  8  16
direct
0.000000 0.500000 0.750000 Li
0.000000 0.500000 0.250000 Li
0.500000 0.000000 0.750000 Li
0.500000 0.000000 0.250000 Li
0.750000 0.000000 0.875000 Co
0.250000 0.000000 0.125000 Co
0.250000 0.500000 0.875000 Co
0.750000 0.500000 0.125000 Co
0.750000 0.500000 0.625000 Co
0.250000 0.500000 0.375000 Co
0.250000 0.000000 0.625000 Co
0.750000 0.000000 0.375000 Co
0.880160 0.000000 0.940080 O
0.119840 0.000000 0.059920 O
0.380160 0.500000 0.940080 O
0.619840 0.500000 0.059920 O
0.880160 0.500000 0.690080 O
0.119840 0.500000 0.309920 O
0.380160 0.000000 0.690080 O
0.619840 0.000000 0.309920 O
0.380160 0.500000 0.440080 O
0.619840 0.500000 0.559920 O
0.880160 0.000000 0.440080 O
0.119840 0.000000 0.559920 O
0.380160 0.000000 0.190080 O
0.619840 0.000000 0.809920 O
0.880160 0.500000 0.190080 O
0.119840 0.500000 0.809920 O
