Li24 Co48 O96
1.0
5.560000 0.000000 0.000000
-2.780000 4.815101 0.000000
0.000000 0.000000 51.900002
Li Co O
   18  48  96
direct
0.000000 0.500000 0.750000 Li
0.500000 0.500000 0.750000 Li
0.500000 0.000000 0.750000 Li
0.000000 0.500000 0.250000 Li
0.500000 0.500000 0.250000 Li
0.500000 0.000000 0.250000 Li
0.666667 0.833333 0.083333 Li
0.166667 0.833333 0.083333 Li
0.166667 0.333333 0.083333 Li
0.666667 0.833333 0.583333 Li
0.166667 0.833333 0.583333 Li
0.166667 0.333333 0.583333 Li
0.333333 0.166667 0.416667 Li
0.833333 0.166667 0.416667 Li
0.833333 0.666667 0.416667 Li
0.333333 0.166667 0.916667 Li
0.833333 0.166667 0.916667 Li
0.833333 0.666667 0.916667 Li
0.000000 0.500000 0.960000 Co
0.500000 0.500000 0.960000 Co
0.500000 0.000000 0.960000 Co
0.000000 0.500000 0.040000 Co
0.500000 0.500000 0.040000 Co
0.500000 0.000000 0.040000 Co
0.666667 0.833333 0.293333 Co
0.166667 0.833333 0.293333 Co
0.166667 0.333333 0.293333 Co
0.666667 0.833333 0.373333 Co
0.166667 0.833333 0.373333 Co
0.166667 0.333333 0.373333 Co
0.333333 0.166667 0.626667 Co
0.833333 0.166667 0.626667 Co
0.833333 0.666667 0.626667 Co
0.333333 0.166667 0.706667 Co
0.833333 0.166667 0.706667 Co
0.833333 0.666667 0.706667 Co
0.000000 0.500000 0.540000 Co
0.500000 0.500000 0.540000 Co
0.500000 0.000000 0.540000 Co
0.000000 0.500000 0.460000 Co
0.500000 0.500000 0.460000 Co
0.500000 0.000000 0.460000 Co
0.666667 0.833333 0.873333 Co
0.166667 0.833333 0.873333 Co
0.166667 0.333333 0.873333 Co
0.666667 0.833333 0.793333 Co
0.166667 0.833333 0.793333 Co
0.166667 0.333333 0.793333 Co
0.333333 0.166667 0.206667 Co
0.833333 0.166667 0.206667 Co
0.833333 0.666667 0.206667 Co
0.333333 0.166667 0.126667 Co
0.833333 0.166667 0.126667 Co
0.833333 0.666667 0.126667 Co
0.666670 0.333330 0.293330 Co
0.333330 0.666670 0.706670 Co
0.333337 0.666663 0.626663 Co
0.999997 0.000003 0.040003 Co
0.000003 0.999997 0.959997 Co
0.666663 0.333337 0.373337 Co
0.666670 0.333330 0.873330 Co
0.333330 0.666670 0.126670 Co
0.333337 0.666663 0.206663 Co
0.999997 0.000003 0.460003 Co
0.000003 0.999997 0.539997 Co
0.666663 0.333337 0.793337 Co
0.000000 0.500000 0.895000 O
0.500000 0.500000 0.895000 O
0.500000 0.000000 0.895000 O
0.000000 0.500000 0.105000 O
0.500000 0.500000 0.105000 O
0.500000 0.000000 0.105000 O
0.666667 0.833333 0.228333 O
0.166667 0.833333 0.228333 O
0.166667 0.333333 0.228333 O
0.666667 0.833333 0.438333 O
0.166667 0.833333 0.438333 O
0.166667 0.333333 0.438333 O
0.333333 0.166667 0.561667 O
0.833333 0.166667 0.561667 O
0.833333 0.666667 0.561667 O
0.333333 0.166667 0.771667 O
0.833333 0.166667 0.771667 O
0.833333 0.666667 0.771667 O
0.000000 0.500000 0.605000 O
0.500000 0.500000 0.605000 O
0.500000 0.000000 0.605000 O
0.000000 0.500000 0.395000 O
0.500000 0.500000 0.395000 O
0.500000 0.000000 0.395000 O
0.666667 0.833333 0.938333 O
0.166667 0.833333 0.938333 O
0.166667 0.333333 0.938333 O
0.666667 0.833333 0.728333 O
0.166667 0.833333 0.728333 O
0.166667 0.333333 0.728333 O
0.333333 0.166667 0.271667 O
0.833333 0.166667 0.271667 O
0.833333 0.666667 0.271667 O
0.333333 0.166667 0.061667 O
0.833333 0.166667 0.061667 O
0.833333 0.666667 0.061667 O
0.666670 0.333330 0.228330 O
0.333330 0.666670 0.771670 O
0.333337 0.666663 0.561663 O
0.999997 0.000003 0.105003 O
0.000003 0.999997 0.894997 O
0.666663 0.333337 0.438337 O
0.666670 0.333330 0.938330 O
0.333330 0.666670 0.061670 O
0.333337 0.666663 0.271663 O
0.999997 0.000003 0.395003 O
0.000003 0.999997 0.604997 O
0.666663 0.333337 0.728337 O
0.000000 0.500000 0.810000 O
0.500000 0.500000 0.810000 O
0.500000 0.000000 0.810000 O
0.000000 0.500000 0.190000 O
0.500000 0.500000 0.190000 O
0.500000 0.000000 0.190000 O
0.666667 0.833333 0.143333 O
0.166667 0.833333 0.143333 O
0.166667 0.333333 0.143333 O
0.666667 0.833333 0.523333 O
0.166667 0.833333 0.523333 O
0.166667 0.333333 0.523333 O
0.333333 0.166667 0.476667 O
0.833333 0.166667 0.476667 O
0.833333 0.666667 0.476667 O
0.333333 0.166667 0.856667 O
0.833333 0.166667 0.856667 O
0.833333 0.666667 0.856667 O
0.000000 0.500000 0.690000 O
0.500000 0.500000 0.690000 O
0.500000 0.000000 0.690000 O
0.000000 0.500000 0.310000 O
0.500000 0.500000 0.310000 O
0.500000 0.000000 0.310000 O
0.666667 0.833333 0.023333 O
0.166667 0.833333 0.023333 O
0.166667 0.333333 0.023333 O
0.666667 0.833333 0.643333 O
0.166667 0.833333 0.643333 O
0.166667 0.333333 0.643333 O
0.333333 0.166667 0.356667 O
0.833333 0.166667 0.356667 O
0.833333 0.666667 0.356667 O
0.333333 0.166667 0.976667 O
0.833333 0.166667 0.976667 O
0.833333 0.666667 0.976667 O
0.666670 0.333330 0.143330 O
0.333330 0.666670 0.856670 O
0.333337 0.666663 0.476663 O
0.999997 0.000003 0.190003 O
0.000003 0.999997 0.809997 O
0.666663 0.333337 0.523337 O
0.666670 0.333330 0.023330 O
0.333330 0.666670 0.976670 O
0.333337 0.666663 0.356663 O
0.999997 0.000003 0.310003 O
0.000003 0.999997 0.689997 O
0.666663 0.333337 0.643337 O
