Li14 C84
1.0
11.375408 0.000000 0.000000
-5.687703 9.851393 0.000000
0.000000 0.000000 7.200000
Li C
   9  84
direct
0.047620 0.238090 0.763880 Li
0.761910 0.809530 0.763880 Li
0.190470 0.952380 0.763880 Li
0.476190 0.380950 0.763880 Li
0.619050 0.095240 0.763880 Li
0.904760 0.523810 0.763880 Li
0.238100 0.190480 0.236120 Li
0.809520 0.047620 0.236120 Li
0.952380 0.761900 0.236120 Li
0.380950 0.571430 0.000000 C
0.428570 0.809520 0.000000 C
0.190480 0.619050 0.000000 C
0.142860 0.380950 0.000000 C
0.619050 0.761910 0.000000 C
0.238090 0.857140 0.000000 C
0.333333 0.333333 0.000000 C
0.666667 0.000000 0.000000 C
0.000000 0.666667 0.000000 C
0.095240 0.142860 0.000000 C
0.857140 0.952380 0.000000 C
0.047620 0.904760 0.000000 C
0.571430 0.523810 0.000000 C
0.476190 0.047620 0.000000 C
0.952380 0.428570 0.000000 C
0.809530 0.714290 0.000000 C
0.285710 0.095240 0.000000 C
0.904760 0.190470 0.000000 C
0.523810 0.285720 0.000000 C
0.714280 0.238090 0.000000 C
0.761910 0.476190 0.000000 C
0.523810 0.619050 0.000000 C
0.380950 0.904760 0.000000 C
0.095240 0.476190 0.000000 C
0.238090 0.190470 0.000000 C
0.809530 0.047620 0.000000 C
0.952380 0.761910 0.000000 C
0.047620 0.238100 0.000000 C
0.761900 0.809520 0.000000 C
0.190480 0.952380 0.000000 C
0.333333 0.666667 0.000000 C
0.476190 0.380950 0.000000 C
0.619050 0.095240 0.000000 C
0.904760 0.523810 0.000000 C
0.666667 0.333333 0.000000 C
0.190480 0.619050 0.500000 C
0.380950 0.571430 0.500000 C
0.428570 0.809520 0.500000 C
0.095240 0.142860 0.500000 C
0.857140 0.952380 0.500000 C
0.047620 0.904760 0.500000 C
0.571430 0.523810 0.500000 C
0.476190 0.047620 0.500000 C
0.952380 0.428570 0.500000 C
0.285710 0.095240 0.500000 C
0.904760 0.190470 0.500000 C
0.809530 0.714290 0.500000 C
0.619050 0.761910 0.500000 C
0.238090 0.857140 0.500000 C
0.142860 0.380950 0.500000 C
0.333333 0.333333 0.500000 C
0.666667 0.000000 0.500000 C
0.000000 0.666667 0.500000 C
0.761910 0.476190 0.500000 C
0.523810 0.285720 0.500000 C
0.714280 0.238090 0.500000 C
0.476190 0.714280 0.500000 C
0.285720 0.761910 0.500000 C
0.238090 0.523810 0.500000 C
0.000000 0.333333 0.500000 C
0.666667 0.666667 0.500000 C
0.333333 0.000000 0.500000 C
0.380950 0.238100 0.500000 C
0.761900 0.142850 0.500000 C
0.857150 0.619050 0.500000 C
0.190470 0.285710 0.500000 C
0.714290 0.904760 0.500000 C
0.095240 0.809530 0.500000 C
0.428580 0.476190 0.500000 C
0.523810 0.952390 0.500000 C
0.047610 0.571420 0.500000 C
0.904760 0.857140 0.500000 C
0.142860 0.047620 0.500000 C
0.952380 0.095240 0.500000 C
0.619040 0.428560 0.500000 C
0.571440 0.190480 0.500000 C
0.809520 0.380960 0.500000 C
0.285710 0.428570 0.000000 C
0.571430 0.857140 0.000000 C
0.142860 0.714290 0.000000 C
0.000000 0.000000 0.000000 C
0.714280 0.571430 0.000000 C
0.428570 0.142850 0.000000 C
0.857150 0.285720 0.000000 C
