Li12 Co12 O24
1.0
2.815600 0.000000 0.000000
-1.407800 2.438381 0.000000
0.000000 0.000000 56.216801
Li Co O
   6  12  24
direct
0.333330 0.666670 0.041670 Li
0.999997 0.000003 0.375003 Li
0.666663 0.333337 0.708337 Li
0.000000 0.000000 0.125000 Li
0.666667 0.333333 0.458333 Li
0.333333 0.666667 0.791667 Li
0.000000 0.000000 0.000000 Co
0.666667 0.333333 0.333333 Co
0.333333 0.666667 0.666667 Co
0.000000 0.000000 0.750000 Co
0.666667 0.333333 0.083333 Co
0.333333 0.666667 0.416667 Co
0.666670 0.333330 0.833330 Co
0.333337 0.666663 0.166663 Co
0.000003 0.999997 0.499997 Co
0.333330 0.666670 0.916670 Co
0.999997 0.000003 0.250003 Co
0.666663 0.333337 0.583337 Co
0.000000 0.000000 0.934920 O
0.666667 0.333333 0.268253 O
0.333333 0.666667 0.601587 O
0.000000 0.000000 0.815080 O
0.666667 0.333333 0.148413 O
0.333333 0.666667 0.481747 O
0.666670 0.333330 0.018250 O
0.333337 0.666663 0.351583 O
0.000003 0.999997 0.684917 O
0.666670 0.333330 0.898410 O
0.333337 0.666663 0.231743 O
0.000003 0.999997 0.565077 O
0.333330 0.666670 0.101590 O
0.999997 0.000003 0.434923 O
0.666663 0.333337 0.768257 O
0.333330 0.666670 0.981750 O
0.999997 0.000003 0.315083 O
0.666663 0.333337 0.648417 O
0.000000 0.000000 0.184920 O
0.666667 0.333333 0.518253 O
0.333333 0.666667 0.851587 O
0.000000 0.000000 0.065080 O
0.666667 0.333333 0.398413 O
0.333333 0.666667 0.731747 O
