Li6 C36
1.0
4.299500 0.000000 0.000000
-2.149750 3.723476 0.000000
0.000000 0.000000 21.599998
Li C
   4  36
direct
0.333333 0.666667 0.587960 Li
0.666667 0.333333 0.412040 Li
0.333333 0.666667 0.921290 Li
0.666667 0.333333 0.078710 Li
0.333333 0.333333 0.000000 C
0.666667 0.000000 0.000000 C
0.000000 0.666667 0.000000 C
0.333333 0.333333 0.333333 C
0.666667 0.000000 0.333333 C
0.000000 0.666667 0.333333 C
0.333333 0.333333 0.666667 C
0.000000 0.666667 0.666667 C
0.666667 0.000000 0.666667 C
0.666667 0.333333 0.000000 C
0.333333 0.666667 0.000000 C
0.666667 0.333333 0.333333 C
0.333333 0.666667 0.666667 C
0.666667 0.333333 0.666667 C
0.333333 0.666667 0.333333 C
0.000000 0.666667 0.166670 C
0.333333 0.333333 0.166670 C
0.666667 0.000000 0.166670 C
0.666667 0.000000 0.833330 C
0.333333 0.333333 0.833330 C
0.000000 0.666667 0.833330 C
0.000000 0.666667 0.500000 C
0.333333 0.333333 0.500000 C
0.666667 0.000000 0.500000 C
0.666667 0.666667 0.166670 C
0.333333 0.000000 0.166670 C
0.000000 0.333333 0.166670 C
0.666667 0.666667 0.833330 C
0.000000 0.333333 0.833330 C
0.333333 0.000000 0.833330 C
0.666667 0.666667 0.500000 C
0.333333 0.000000 0.500000 C
0.000000 0.333333 0.500000 C
0.000000 0.000000 0.000000 C
0.000000 0.000000 0.333333 C
0.000000 0.000000 0.666667 C
