Li24 Co24 O48
1.0
2.815600 0.000000 0.000000
-1.407800 2.438381 0.000000
0.000000 0.000000 112.433601
Li Co O
   18  24  48
direct
0.000000 0.000000 0.750000 Li
0.000000 0.000000 0.250000 Li
0.666667 0.333333 0.083333 Li
0.666667 0.333333 0.583333 Li
0.333333 0.666667 0.416667 Li
0.333333 0.666667 0.916667 Li
0.333330 0.666670 0.791670 Li
0.666670 0.333330 0.708330 Li
0.666670 0.333330 0.208330 Li
0.333330 0.666670 0.291670 Li
0.999997 0.000003 0.125003 Li
0.333337 0.666663 0.041663 Li
0.333337 0.666663 0.541663 Li
0.999997 0.000003 0.625003 Li
0.666663 0.333337 0.458337 Li
0.000003 0.999997 0.374997 Li
0.000003 0.999997 0.874997 Li
0.666663 0.333337 0.958337 Li
0.000000 0.000000 0.812500 Co
0.000000 0.000000 0.687500 Co
0.000000 0.000000 0.187500 Co
0.000000 0.000000 0.312500 Co
0.666667 0.333333 0.145833 Co
0.666667 0.333333 0.020833 Co
0.666667 0.333333 0.520833 Co
0.666667 0.333333 0.645833 Co
0.333333 0.666667 0.479167 Co
0.333333 0.666667 0.354167 Co
0.333333 0.666667 0.854167 Co
0.333333 0.666667 0.979167 Co
0.333330 0.666670 0.729170 Co
0.666670 0.333330 0.770830 Co
0.666670 0.333330 0.270830 Co
0.333330 0.666670 0.229170 Co
0.999997 0.000003 0.062503 Co
0.333337 0.666663 0.104163 Co
0.333337 0.666663 0.604163 Co
0.999997 0.000003 0.562503 Co
0.666663 0.333337 0.395837 Co
0.000003 0.999997 0.437497 Co
0.000003 0.999997 0.937497 Co
0.666663 0.333337 0.895837 Co
0.000000 0.000000 0.779960 O
0.000000 0.000000 0.720040 O
0.000000 0.000000 0.220040 O
0.000000 0.000000 0.279960 O
0.666667 0.333333 0.113293 O
0.666667 0.333333 0.053373 O
0.666667 0.333333 0.553373 O
0.666667 0.333333 0.613293 O
0.333333 0.666667 0.446627 O
0.333333 0.666667 0.386707 O
0.333333 0.666667 0.886707 O
0.333333 0.666667 0.946627 O
0.333330 0.666670 0.821630 O
0.666670 0.333330 0.678370 O
0.666670 0.333330 0.178370 O
0.333330 0.666670 0.321630 O
0.999997 0.000003 0.154963 O
0.333337 0.666663 0.011703 O
0.333337 0.666663 0.511703 O
0.999997 0.000003 0.654963 O
0.666663 0.333337 0.488297 O
0.000003 0.999997 0.345037 O
0.000003 0.999997 0.845037 O
0.666663 0.333337 0.988297 O
0.333330 0.666670 0.761710 O
0.666670 0.333330 0.738290 O
0.666670 0.333330 0.238290 O
0.333330 0.666670 0.261710 O
0.999997 0.000003 0.095043 O
0.333337 0.666663 0.071623 O
0.333337 0.666663 0.571623 O
0.999997 0.000003 0.595043 O
0.666663 0.333337 0.428377 O
0.000003 0.999997 0.404957 O
0.000003 0.999997 0.904957 O
0.666663 0.333337 0.928377 O
0.666670 0.333330 0.863290 O
0.333330 0.666670 0.636710 O
0.333330 0.666670 0.136710 O
0.666670 0.333330 0.363290 O
0.333337 0.666663 0.196623 O
0.999997 0.000003 0.970043 O
0.999997 0.000003 0.470043 O
0.333337 0.666663 0.696623 O
0.000003 0.999997 0.529957 O
0.666663 0.333337 0.303377 O
0.666663 0.333337 0.803377 O
0.000003 0.999997 0.029957 O
