Li24 Co48 O96
1.0
2.780000 0.000000 0.000000
-1.390000 2.407551 0.000000
0.000000 0.000000 207.600006
Li Co O
   15  48  96
direct
0.000000 0.000000 0.750000 Li
0.000000 0.000000 0.250000 Li
0.666667 0.333333 0.083333 Li
0.666667 0.333333 0.583333 Li
0.333333 0.666667 0.416667 Li
0.333333 0.666667 0.916667 Li
0.333330 0.666670 0.791670 Li
0.666670 0.333330 0.208330 Li
0.999997 0.000003 0.125003 Li
0.333337 0.666663 0.541663 Li
0.666663 0.333337 0.458337 Li
0.000003 0.999997 0.874997 Li
0.000000 0.000000 0.000000 Li
0.666667 0.333333 0.333333 Li
0.333333 0.666667 0.666667 Li
0.000000 0.000000 0.802500 Co
0.000000 0.000000 0.197500 Co
0.666667 0.333333 0.135833 Co
0.666667 0.333333 0.530833 Co
0.333333 0.666667 0.469167 Co
0.333333 0.666667 0.864167 Co
0.000000 0.000000 0.697500 Co
0.000000 0.000000 0.302500 Co
0.666667 0.333333 0.030833 Co
0.666667 0.333333 0.635833 Co
0.333333 0.666667 0.364167 Co
0.333333 0.666667 0.969167 Co
0.333330 0.666670 0.844170 Co
0.666670 0.333330 0.155830 Co
0.999997 0.000003 0.177503 Co
0.333337 0.666663 0.489163 Co
0.666663 0.333337 0.510837 Co
0.000003 0.999997 0.822497 Co
0.333330 0.666670 0.739170 Co
0.666670 0.333330 0.260830 Co
0.999997 0.000003 0.072503 Co
0.333337 0.666663 0.594163 Co
0.666663 0.333337 0.405837 Co
0.000003 0.999997 0.927497 Co
0.666670 0.333330 0.885830 Co
0.333330 0.666670 0.114170 Co
0.333337 0.666663 0.219163 Co
0.999997 0.000003 0.447503 Co
0.000003 0.999997 0.552497 Co
0.666663 0.333337 0.780837 Co
0.000000 0.000000 0.052500 Co
0.000000 0.000000 0.947500 Co
0.666667 0.333333 0.385833 Co
0.666667 0.333333 0.280833 Co
0.333333 0.666667 0.719167 Co
0.333333 0.666667 0.614167 Co
0.000000 0.000000 0.427500 Co
0.000000 0.000000 0.572500 Co
0.666667 0.333333 0.760833 Co
0.666667 0.333333 0.905833 Co
0.333333 0.666667 0.094167 Co
0.333333 0.666667 0.239167 Co
0.000000 0.000000 0.677500 Co
0.000000 0.000000 0.322500 Co
0.666667 0.333333 0.010833 Co
0.666667 0.333333 0.655833 Co
0.333333 0.666667 0.344167 Co
0.333333 0.666667 0.989167 Co
0.000000 0.000000 0.786250 O
0.000000 0.000000 0.213750 O
0.666667 0.333333 0.119583 O
0.666667 0.333333 0.547083 O
0.333333 0.666667 0.452917 O
0.333333 0.666667 0.880417 O
0.000000 0.000000 0.713750 O
0.000000 0.000000 0.286250 O
0.666667 0.333333 0.047083 O
0.666667 0.333333 0.619583 O
0.333333 0.666667 0.380417 O
0.333333 0.666667 0.952917 O
0.333330 0.666670 0.827920 O
0.666670 0.333330 0.172080 O
0.999997 0.000003 0.161253 O
0.333337 0.666663 0.505413 O
0.666663 0.333337 0.494587 O
0.000003 0.999997 0.838747 O
0.333330 0.666670 0.755420 O
0.666670 0.333330 0.244580 O
0.999997 0.000003 0.088753 O
0.333337 0.666663 0.577913 O
0.666663 0.333337 0.422087 O
0.000003 0.999997 0.911247 O
0.666670 0.333330 0.869580 O
0.333330 0.666670 0.130420 O
0.333337 0.666663 0.202913 O
0.999997 0.000003 0.463753 O
0.000003 0.999997 0.536247 O
0.666663 0.333337 0.797087 O
0.000000 0.000000 0.036250 O
0.000000 0.000000 0.963750 O
0.666667 0.333333 0.369583 O
0.666667 0.333333 0.297083 O
0.333333 0.666667 0.702917 O
0.333333 0.666667 0.630417 O
0.000000 0.000000 0.411250 O
0.000000 0.000000 0.588750 O
0.666667 0.333333 0.744583 O
0.666667 0.333333 0.922083 O
0.333333 0.666667 0.077917 O
0.333333 0.666667 0.255417 O
0.000000 0.000000 0.661250 O
0.000000 0.000000 0.338750 O
0.666667 0.333333 0.994583 O
0.666667 0.333333 0.672083 O
0.333333 0.666667 0.327917 O
0.333333 0.666667 0.005417 O
0.000000 0.000000 0.765000 O
0.000000 0.000000 0.235000 O
0.666667 0.333333 0.098333 O
0.666667 0.333333 0.568333 O
0.333333 0.666667 0.431667 O
0.333333 0.666667 0.901667 O
0.000000 0.000000 0.735000 O
0.000000 0.000000 0.265000 O
0.666667 0.333333 0.068333 O
0.666667 0.333333 0.598333 O
0.333333 0.666667 0.401667 O
0.333333 0.666667 0.931667 O
0.333330 0.666670 0.806670 O
0.666670 0.333330 0.193330 O
0.999997 0.000003 0.140003 O
0.333337 0.666663 0.526663 O
0.666663 0.333337 0.473337 O
0.000003 0.999997 0.859997 O
0.333330 0.666670 0.776670 O
0.666670 0.333330 0.223330 O
0.999997 0.000003 0.110003 O
0.333337 0.666663 0.556663 O
0.666663 0.333337 0.443337 O
0.000003 0.999997 0.889997 O
0.666670 0.333330 0.848330 O
0.333330 0.666670 0.151670 O
0.333337 0.666663 0.181663 O
0.999997 0.000003 0.485003 O
0.000003 0.999997 0.514997 O
0.666663 0.333337 0.818337 O
0.000000 0.000000 0.015000 O
0.000000 0.000000 0.985000 O
0.666667 0.333333 0.348333 O
0.666667 0.333333 0.318333 O
0.333333 0.666667 0.681667 O
0.333333 0.666667 0.651667 O
0.000000 0.000000 0.390000 O
0.000000 0.000000 0.610000 O
0.666667 0.333333 0.723333 O
0.666667 0.333333 0.943333 O
0.333333 0.666667 0.056667 O
0.333333 0.666667 0.276667 O
0.000000 0.000000 0.640000 O
0.000000 0.000000 0.360000 O
0.666667 0.333333 0.973333 O
0.666667 0.333333 0.693333 O
0.333333 0.666667 0.306667 O
0.333333 0.666667 0.026667 O
