Li9 C54
1.0
12.969881 0.000000 0.000000
-6.484940 11.232246 0.000000
0.000000 0.000000 3.745368
Li C
   7  54
direct
0.000000 0.666667 0.000000 Li
0.333333 0.333333 0.000000 Li
0.666667 0.000000 0.000000 Li
0.000000 0.333333 0.000000 Li
0.666667 0.666667 0.000000 Li
0.333333 0.000000 0.000000 Li
0.000000 0.000000 0.000000 Li
0.555480 0.333333 0.500000 C
0.666667 0.222147 0.500000 C
0.777853 0.444520 0.500000 C
0.444520 0.666667 0.500000 C
0.333333 0.777853 0.500000 C
0.222147 0.555480 0.500000 C
0.666667 0.444520 0.500000 C
0.777853 0.333333 0.500000 C
0.555480 0.222147 0.500000 C
0.333333 0.555480 0.500000 C
0.222147 0.666667 0.500000 C
0.444520 0.777853 0.500000 C
0.888820 0.666667 0.500000 C
0.333333 0.222153 0.500000 C
0.777847 0.111180 0.500000 C
0.111180 0.333333 0.500000 C
0.666667 0.777847 0.500000 C
0.222153 0.888820 0.500000 C
0.333333 0.111180 0.500000 C
0.777847 0.666667 0.500000 C
0.888820 0.222153 0.500000 C
0.666667 0.888820 0.500000 C
0.222153 0.333333 0.500000 C
0.111180 0.777847 0.500000 C
0.222150 0.000000 0.500000 C
0.000000 0.222150 0.500000 C
0.777850 0.777850 0.500000 C
0.777850 0.000000 0.500000 C
0.000000 0.777850 0.500000 C
0.222150 0.222150 0.500000 C
0.888820 0.333333 0.500000 C
0.666667 0.555487 0.500000 C
0.444513 0.111180 0.500000 C
0.111180 0.666667 0.500000 C
0.333333 0.444513 0.500000 C
0.555487 0.888820 0.500000 C
0.666667 0.111180 0.500000 C
0.444513 0.333333 0.500000 C
0.888820 0.555487 0.500000 C
0.333333 0.888820 0.500000 C
0.555487 0.666667 0.500000 C
0.111180 0.444513 0.500000 C
0.000000 0.555480 0.500000 C
0.444520 0.444520 0.500000 C
0.555480 0.000000 0.500000 C
0.000000 0.444520 0.500000 C
0.555480 0.555480 0.500000 C
0.444520 0.000000 0.500000 C
0.888820 0.000000 0.500000 C
0.000000 0.888820 0.500000 C
0.111180 0.111180 0.500000 C
0.111180 0.000000 0.500000 C
0.000000 0.111180 0.500000 C
0.888820 0.888820 0.500000 C
