Li24 Co48 O96
1.0
2.780000 0.000000 0.000000
-1.390000 2.407551 0.000000
0.000000 0.000000 207.600006
Li Co O
   18  48  96
direct
0.666670 0.333330 0.895830 Li
0.333330 0.666670 0.104170 Li
0.333337 0.666663 0.229163 Li
0.999997 0.000003 0.437503 Li
0.000003 0.999997 0.562497 Li
0.666663 0.333337 0.770837 Li
0.000000 0.000000 0.937500 Li
0.000000 0.000000 0.062500 Li
0.666667 0.333333 0.270833 Li
0.666667 0.333333 0.395833 Li
0.333333 0.666667 0.604167 Li
0.333333 0.666667 0.729167 Li
0.000000 0.000000 0.312500 Li
0.000000 0.000000 0.687500 Li
0.666667 0.333333 0.645833 Li
0.666667 0.333333 0.020833 Li
0.333333 0.666667 0.979167 Li
0.333333 0.666667 0.354167 Li
0.000000 0.000000 0.865000 Co
0.000000 0.000000 0.135000 Co
0.666667 0.333333 0.198333 Co
0.666667 0.333333 0.468333 Co
0.333333 0.666667 0.531667 Co
0.333333 0.666667 0.801667 Co
0.000000 0.000000 0.760000 Co
0.000000 0.000000 0.240000 Co
0.666667 0.333333 0.093333 Co
0.666667 0.333333 0.573333 Co
0.333333 0.666667 0.426667 Co
0.333333 0.666667 0.906667 Co
0.666670 0.333330 0.948330 Co
0.333330 0.666670 0.051670 Co
0.333337 0.666663 0.281663 Co
0.999997 0.000003 0.385003 Co
0.000003 0.999997 0.614997 Co
0.666663 0.333337 0.718337 Co
0.666670 0.333330 0.843330 Co
0.333330 0.666670 0.156670 Co
0.333337 0.666663 0.176663 Co
0.999997 0.000003 0.490003 Co
0.000003 0.999997 0.509997 Co
0.666663 0.333337 0.823337 Co
0.000000 0.000000 0.990000 Co
0.000000 0.000000 0.010000 Co
0.666667 0.333333 0.323333 Co
0.666667 0.333333 0.343333 Co
0.333333 0.666667 0.656667 Co
0.333333 0.666667 0.676667 Co
0.000000 0.000000 0.115000 Co
0.000000 0.000000 0.885000 Co
0.666667 0.333333 0.448333 Co
0.666667 0.333333 0.218333 Co
0.333333 0.666667 0.781667 Co
0.333333 0.666667 0.551667 Co
0.000000 0.000000 0.365000 Co
0.000000 0.000000 0.635000 Co
0.666667 0.333333 0.698333 Co
0.666667 0.333333 0.968333 Co
0.333333 0.666667 0.031667 Co
0.333333 0.666667 0.301667 Co
0.000000 0.000000 0.740000 Co
0.000000 0.000000 0.260000 Co
0.666667 0.333333 0.073333 Co
0.666667 0.333333 0.593333 Co
0.333333 0.666667 0.406667 Co
0.333333 0.666667 0.926667 Co
0.000000 0.000000 0.848750 O
0.000000 0.000000 0.151250 O
0.666667 0.333333 0.182083 O
0.666667 0.333333 0.484583 O
0.333333 0.666667 0.515417 O
0.333333 0.666667 0.817917 O
0.000000 0.000000 0.776250 O
0.000000 0.000000 0.223750 O
0.666667 0.333333 0.109583 O
0.666667 0.333333 0.557083 O
0.333333 0.666667 0.442917 O
0.333333 0.666667 0.890417 O
0.666670 0.333330 0.932080 O
0.333330 0.666670 0.067920 O
0.333337 0.666663 0.265413 O
0.999997 0.000003 0.401253 O
0.000003 0.999997 0.598747 O
0.666663 0.333337 0.734587 O
0.666670 0.333330 0.859580 O
0.333330 0.666670 0.140420 O
0.333337 0.666663 0.192913 O
0.999997 0.000003 0.473753 O
0.000003 0.999997 0.526247 O
0.666663 0.333337 0.807087 O
0.000000 0.000000 0.973750 O
0.000000 0.000000 0.026250 O
0.666667 0.333333 0.307083 O
0.666667 0.333333 0.359583 O
0.333333 0.666667 0.640417 O
0.333333 0.666667 0.692917 O
0.000000 0.000000 0.098750 O
0.000000 0.000000 0.901250 O
0.666667 0.333333 0.432083 O
0.666667 0.333333 0.234583 O
0.333333 0.666667 0.765417 O
0.333333 0.666667 0.567917 O
0.000000 0.000000 0.348750 O
0.000000 0.000000 0.651250 O
0.666667 0.333333 0.682083 O
0.666667 0.333333 0.984583 O
0.333333 0.666667 0.015417 O
0.333333 0.666667 0.317917 O
0.000000 0.000000 0.723750 O
0.000000 0.000000 0.276250 O
0.666667 0.333333 0.057083 O
0.666667 0.333333 0.609583 O
0.333333 0.666667 0.390417 O
0.333333 0.666667 0.942917 O
0.000000 0.000000 0.827500 O
0.000000 0.000000 0.172500 O
0.666667 0.333333 0.160833 O
0.666667 0.333333 0.505833 O
0.333333 0.666667 0.494167 O
0.333333 0.666667 0.839167 O
0.000000 0.000000 0.797500 O
0.000000 0.000000 0.202500 O
0.666667 0.333333 0.130833 O
0.666667 0.333333 0.535833 O
0.333333 0.666667 0.464167 O
0.333333 0.666667 0.869167 O
0.666670 0.333330 0.910830 O
0.333330 0.666670 0.089170 O
0.333337 0.666663 0.244163 O
0.999997 0.000003 0.422503 O
0.000003 0.999997 0.577497 O
0.666663 0.333337 0.755837 O
0.666670 0.333330 0.880830 O
0.333330 0.666670 0.119170 O
0.333337 0.666663 0.214163 O
0.999997 0.000003 0.452503 O
0.000003 0.999997 0.547497 O
0.666663 0.333337 0.785837 O
0.000000 0.000000 0.952500 O
0.000000 0.000000 0.047500 O
0.666667 0.333333 0.285833 O
0.666667 0.333333 0.380833 O
0.333333 0.666667 0.619167 O
0.333333 0.666667 0.714167 O
0.000000 0.000000 0.077500 O
0.000000 0.000000 0.922500 O
0.666667 0.333333 0.410833 O
0.666667 0.333333 0.255833 O
0.333333 0.666667 0.744167 O
0.333333 0.666667 0.589167 O
0.000000 0.000000 0.327500 O
0.000000 0.000000 0.672500 O
0.666667 0.333333 0.660833 O
0.666667 0.333333 0.005833 O
0.333333 0.666667 0.994167 O
0.333333 0.666667 0.339167 O
0.000000 0.000000 0.702500 O
0.000000 0.000000 0.297500 O
0.666667 0.333333 0.035833 O
0.666667 0.333333 0.630833 O
0.333333 0.666667 0.369167 O
0.333333 0.666667 0.964167 O
