Li21 Co42 O84
1.0
2.780000 0.000000 0.000000
-1.390000 2.407551 0.000000
0.000000 0.000000 181.650009
Li Co O
   15  42  84
direct
0.000000 0.000000 0.285710 Li
0.000000 0.000000 0.714290 Li
0.666667 0.333333 0.619043 Li
0.666667 0.333333 0.047623 Li
0.333333 0.666667 0.952377 Li
0.333333 0.666667 0.380957 Li
0.666670 0.333330 0.333330 Li
0.333330 0.666670 0.666670 Li
0.999997 0.000003 0.000003 Li
0.000000 0.000000 0.857140 Li
0.000000 0.000000 0.142860 Li
0.666667 0.333333 0.190473 Li
0.666667 0.333333 0.476193 Li
0.333333 0.666667 0.523807 Li
0.333333 0.666667 0.809527 Li
0.000000 0.000000 0.345710 Co
0.000000 0.000000 0.654290 Co
0.666667 0.333333 0.679043 Co
0.666667 0.333333 0.987623 Co
0.333333 0.666667 0.012377 Co
0.333333 0.666667 0.320957 Co
0.000000 0.000000 0.225710 Co
0.000000 0.000000 0.774290 Co
0.666667 0.333333 0.559043 Co
0.666667 0.333333 0.107623 Co
0.333333 0.666667 0.892377 Co
0.333333 0.666667 0.440957 Co
0.666670 0.333330 0.393330 Co
0.333330 0.666670 0.606670 Co
0.333337 0.666663 0.726663 Co
0.999997 0.000003 0.940003 Co
0.000003 0.999997 0.059997 Co
0.666663 0.333337 0.273337 Co
0.000000 0.000000 0.488570 Co
0.000000 0.000000 0.511430 Co
0.666667 0.333333 0.821903 Co
0.666667 0.333333 0.844763 Co
0.333333 0.666667 0.155237 Co
0.333333 0.666667 0.178097 Co
0.000000 0.000000 0.631430 Co
0.000000 0.000000 0.368570 Co
0.666667 0.333333 0.964763 Co
0.666667 0.333333 0.701903 Co
0.333333 0.666667 0.298097 Co
0.333333 0.666667 0.035237 Co
0.000000 0.000000 0.917140 Co
0.000000 0.000000 0.082860 Co
0.666667 0.333333 0.250473 Co
0.666667 0.333333 0.416193 Co
0.333333 0.666667 0.583807 Co
0.333333 0.666667 0.749527 Co
0.000000 0.000000 0.202860 Co
0.000000 0.000000 0.797140 Co
0.666667 0.333333 0.536193 Co
0.666667 0.333333 0.130473 Co
0.333333 0.666667 0.869527 Co
0.333333 0.666667 0.463807 Co
0.000000 0.000000 0.327140 O
0.000000 0.000000 0.672860 O
0.666667 0.333333 0.660473 O
0.666667 0.333333 0.006193 O
0.333333 0.666667 0.993807 O
0.333333 0.666667 0.339527 O
0.000000 0.000000 0.244290 O
0.000000 0.000000 0.755710 O
0.666667 0.333333 0.577623 O
0.666667 0.333333 0.089043 O
0.333333 0.666667 0.910957 O
0.333333 0.666667 0.422377 O
0.666670 0.333330 0.374760 O
0.333330 0.666670 0.625240 O
0.333337 0.666663 0.708093 O
0.999997 0.000003 0.958573 O
0.000003 0.999997 0.041427 O
0.666663 0.333337 0.291907 O
0.000000 0.000000 0.470000 O
0.000000 0.000000 0.530000 O
0.666667 0.333333 0.803333 O
0.666667 0.333333 0.863333 O
0.333333 0.666667 0.136667 O
0.333333 0.666667 0.196667 O
0.000000 0.000000 0.612860 O
0.000000 0.000000 0.387140 O
0.666667 0.333333 0.946193 O
0.666667 0.333333 0.720473 O
0.333333 0.666667 0.279527 O
0.333333 0.666667 0.053807 O
0.000000 0.000000 0.898570 O
0.000000 0.000000 0.101430 O
0.666667 0.333333 0.231903 O
0.666667 0.333333 0.434763 O
0.333333 0.666667 0.565237 O
0.333333 0.666667 0.768097 O
0.000000 0.000000 0.184290 O
0.000000 0.000000 0.815710 O
0.666667 0.333333 0.517623 O
0.666667 0.333333 0.149043 O
0.333333 0.666667 0.850957 O
0.333333 0.666667 0.482377 O
0.000000 0.000000 0.302860 O
0.000000 0.000000 0.697140 O
0.666667 0.333333 0.636193 O
0.666667 0.333333 0.030473 O
0.333333 0.666667 0.969527 O
0.333333 0.666667 0.363807 O
0.000000 0.000000 0.268570 O
0.000000 0.000000 0.731430 O
0.666667 0.333333 0.601903 O
0.666667 0.333333 0.064763 O
0.333333 0.666667 0.935237 O
0.333333 0.666667 0.398097 O
0.666670 0.333330 0.350480 O
0.333330 0.666670 0.649520 O
0.333337 0.666663 0.683813 O
0.999997 0.000003 0.982853 O
0.000003 0.999997 0.017147 O
0.666663 0.333337 0.316187 O
0.000000 0.000000 0.445710 O
0.000000 0.000000 0.554290 O
0.666667 0.333333 0.779043 O
0.666667 0.333333 0.887623 O
0.333333 0.666667 0.112377 O
0.333333 0.666667 0.220957 O
0.000000 0.000000 0.588570 O
0.000000 0.000000 0.411430 O
0.666667 0.333333 0.921903 O
0.666667 0.333333 0.744763 O
0.333333 0.666667 0.255237 O
0.333333 0.666667 0.078097 O
0.000000 0.000000 0.874290 O
0.000000 0.000000 0.125710 O
0.666667 0.333333 0.207623 O
0.666667 0.333333 0.459043 O
0.333333 0.666667 0.540957 O
0.333333 0.666667 0.792377 O
0.000000 0.000000 0.160000 O
0.000000 0.000000 0.840000 O
0.666667 0.333333 0.493333 O
0.666667 0.333333 0.173333 O
0.333333 0.666667 0.826667 O
0.333333 0.666667 0.506667 O
