Li12 Co12 O24
1.0
4.876773 0.000000 -56.216797
0.000000 2.815600 0.000000
0.000000 0.000000 28.108400
Li Co O
   6  12  24
direct
0.666670 0.000000 0.166670 Li
0.333330 0.000000 0.833330 Li
0.166670 0.500000 0.166670 Li
0.833330 0.500000 0.833330 Li
0.500000 0.500000 0.000000 Li
0.000000 0.000000 0.000000 Li
0.333330 0.000000 0.583330 Co
0.666670 0.000000 0.416670 Co
0.833330 0.500000 0.583330 Co
0.166670 0.500000 0.416670 Co
0.833330 0.500000 0.083330 Co
0.166670 0.500000 0.916670 Co
0.333330 0.000000 0.083330 Co
0.666670 0.000000 0.916670 Co
0.500000 0.500000 0.250000 Co
0.500000 0.500000 0.750000 Co
0.000000 0.000000 0.250000 Co
0.000000 0.000000 0.750000 Co
0.333330 0.000000 0.453170 O
0.666670 0.000000 0.546830 O
0.833330 0.500000 0.453170 O
0.166670 0.500000 0.546830 O
0.833330 0.500000 0.213490 O
0.166670 0.500000 0.786510 O
0.333330 0.000000 0.213490 O
0.666670 0.000000 0.786510 O
0.666670 0.000000 0.286510 O
0.333330 0.000000 0.713490 O
0.166670 0.500000 0.286510 O
0.833330 0.500000 0.713490 O
0.166670 0.500000 0.046830 O
0.833330 0.500000 0.953170 O
0.666670 0.000000 0.046830 O
0.333330 0.000000 0.953170 O
0.500000 0.500000 0.119840 O
0.500000 0.500000 0.880160 O
0.000000 0.000000 0.119840 O
0.000000 0.000000 0.880160 O
0.500000 0.500000 0.619840 O
0.500000 0.500000 0.380160 O
0.000000 0.000000 0.619840 O
0.000000 0.000000 0.380160 O
