Li6 Co12 O24
1.0
2.780000 0.000000 0.000000
-1.390000 2.407551 0.000000
0.000000 0.000000 51.900002
Li Co O
   3  12  24
direct
0.333330 0.333330 0.250000 Li
0.666670 0.000000 0.916667 Li
0.000000 0.666670 0.583333 Li
0.000000 0.666670 0.293330 Co
0.333330 0.333330 0.959997 Co
0.666670 0.000000 0.626663 Co
0.000000 0.666670 0.873330 Co
0.333330 0.333330 0.539997 Co
0.666670 0.000000 0.206663 Co
0.333330 0.333330 0.460000 Co
0.666670 0.000000 0.126667 Co
0.000000 0.666670 0.793333 Co
0.333330 0.333330 0.040000 Co
0.666670 0.000000 0.706667 Co
0.000000 0.666670 0.373333 Co
0.000000 0.666670 0.228330 O
0.333330 0.333330 0.894997 O
0.666670 0.000000 0.561663 O
0.000000 0.666670 0.938330 O
0.333330 0.333330 0.604997 O
0.666670 0.000000 0.271663 O
0.333330 0.333330 0.395000 O
0.666670 0.000000 0.061667 O
0.000000 0.666670 0.728333 O
0.333330 0.333330 0.105000 O
0.666670 0.000000 0.771667 O
0.000000 0.666670 0.438333 O
0.000000 0.666670 0.143330 O
0.333330 0.333330 0.809997 O
0.666670 0.000000 0.476663 O
0.000000 0.666670 0.023330 O
0.333330 0.333330 0.689997 O
0.666670 0.000000 0.356663 O
0.333330 0.333330 0.310000 O
0.666670 0.000000 0.976667 O
0.000000 0.666670 0.643333 O
0.333330 0.333330 0.190000 O
0.666670 0.000000 0.856667 O
0.000000 0.666670 0.523333 O
