Li10 C60
1.0
4.299500 0.000000 0.000000
-2.149750 3.723476 0.000000
0.000000 0.000000 36.000000
Li C
   8  60
direct
0.333333 0.666667 0.952780 Li
0.666667 0.333333 0.047220 Li
0.333333 0.666667 0.152780 Li
0.666667 0.333333 0.847220 Li
0.333333 0.666667 0.552780 Li
0.666667 0.333333 0.447220 Li
0.333333 0.666667 0.752780 Li
0.666667 0.333333 0.247220 Li
0.333333 0.333333 0.800000 C
0.666667 0.000000 0.800000 C
0.000000 0.666667 0.800000 C
0.333333 0.333333 0.200000 C
0.000000 0.666667 0.200000 C
0.666667 0.000000 0.200000 C
0.333333 0.333333 0.000000 C
0.666667 0.000000 0.000000 C
0.000000 0.666667 0.000000 C
0.333333 0.333333 0.400000 C
0.666667 0.000000 0.400000 C
0.000000 0.666667 0.400000 C
0.333333 0.333333 0.600000 C
0.000000 0.666667 0.600000 C
0.666667 0.000000 0.600000 C
0.666667 0.333333 0.800000 C
0.333333 0.666667 0.200000 C
0.333333 0.666667 0.800000 C
0.666667 0.333333 0.200000 C
0.666667 0.333333 0.000000 C
0.333333 0.666667 0.000000 C
0.666667 0.333333 0.400000 C
0.333333 0.666667 0.600000 C
0.666667 0.333333 0.600000 C
0.333333 0.666667 0.400000 C
0.000000 0.666667 0.900000 C
0.333333 0.333333 0.900000 C
0.666667 0.000000 0.900000 C
0.666667 0.000000 0.100000 C
0.333333 0.333333 0.100000 C
0.000000 0.666667 0.100000 C
0.666667 0.000000 0.700000 C
0.000000 0.666667 0.700000 C
0.333333 0.333333 0.700000 C
0.000000 0.666667 0.300000 C
0.666667 0.000000 0.300000 C
0.333333 0.333333 0.300000 C
0.000000 0.666667 0.500000 C
0.333333 0.333333 0.500000 C
0.666667 0.000000 0.500000 C
0.666667 0.666667 0.900000 C
0.333333 0.000000 0.900000 C
0.000000 0.333333 0.900000 C
0.666667 0.666667 0.100000 C
0.000000 0.333333 0.100000 C
0.333333 0.000000 0.100000 C
0.666667 0.666667 0.700000 C
0.333333 0.000000 0.700000 C
0.000000 0.333333 0.700000 C
0.666667 0.666667 0.300000 C
0.000000 0.333333 0.300000 C
0.333333 0.000000 0.300000 C
0.666667 0.666667 0.500000 C
0.333333 0.000000 0.500000 C
0.000000 0.333333 0.500000 C
0.000000 0.000000 0.800000 C
0.000000 0.000000 0.200000 C
0.000000 0.000000 0.000000 C
0.000000 0.000000 0.400000 C
0.000000 0.000000 0.600000 C
