Li6 Co12 O24
1.0
2.780000 0.000000 0.000000
-1.390000 2.407551 0.000000
0.000000 0.000000 51.900002
Li Co O
   3  12  24
direct
0.000000 0.333330 0.666670 Li
0.666670 0.666670 0.000003 Li
0.333330 0.000000 0.333337 Li
0.666670 0.666670 0.710000 Co
0.333330 0.000000 0.043333 Co
0.000000 0.333330 0.376667 Co
0.666670 0.666670 0.290000 Co
0.000000 0.333330 0.956667 Co
0.333330 0.000000 0.623333 Co
0.000000 0.333330 0.876670 Co
0.666670 0.666670 0.210003 Co
0.333330 0.000000 0.543337 Co
0.333330 0.000000 0.123330 Co
0.666670 0.666670 0.789997 Co
0.000000 0.333330 0.456663 Co
0.666670 0.666670 0.645000 O
0.333330 0.000000 0.978333 O
0.000000 0.333330 0.311667 O
0.666670 0.666670 0.355000 O
0.000000 0.333330 0.021667 O
0.333330 0.000000 0.688333 O
0.000000 0.333330 0.811670 O
0.666670 0.666670 0.145003 O
0.333330 0.000000 0.478337 O
0.333330 0.000000 0.188330 O
0.666670 0.666670 0.854997 O
0.000000 0.333330 0.521663 O
0.666670 0.666670 0.560000 O
0.333330 0.000000 0.893333 O
0.000000 0.333330 0.226667 O
0.666670 0.666670 0.440000 O
0.000000 0.333330 0.106667 O
0.333330 0.000000 0.773333 O
0.000000 0.333330 0.726670 O
0.666670 0.666670 0.060003 O
0.333330 0.000000 0.393337 O
0.333330 0.000000 0.273330 O
0.666670 0.666670 0.939997 O
0.000000 0.333330 0.606663 O
