Li15 Co15 O30
1.0
2.815600 0.000000 0.000000
-1.407800 2.438381 0.000000
0.000000 0.000000 70.270996
Li Co O
   9  15  30
direct
0.000000 0.000000 0.400000 Li
0.000000 0.000000 0.600000 Li
0.666667 0.333333 0.733333 Li
0.666667 0.333333 0.933333 Li
0.333333 0.666667 0.066667 Li
0.333333 0.666667 0.266667 Li
0.000000 0.000000 0.000000 Li
0.666667 0.333333 0.333333 Li
0.333333 0.666667 0.666667 Li
0.000000 0.000000 0.500000 Co
0.666667 0.333333 0.833333 Co
0.333333 0.666667 0.166667 Co
0.000000 0.000000 0.300000 Co
0.000000 0.000000 0.700000 Co
0.666667 0.333333 0.633333 Co
0.666667 0.333333 0.033333 Co
0.333333 0.666667 0.966667 Co
0.333333 0.666667 0.366667 Co
0.333330 0.666670 0.566670 Co
0.666670 0.333330 0.433330 Co
0.999997 0.000003 0.900003 Co
0.333337 0.666663 0.766663 Co
0.666663 0.333337 0.233337 Co
0.000003 0.999997 0.099997 Co
0.000000 0.000000 0.447940 O
0.000000 0.000000 0.552060 O
0.666667 0.333333 0.781273 O
0.666667 0.333333 0.885393 O
0.333333 0.666667 0.114607 O
0.333333 0.666667 0.218727 O
0.000000 0.000000 0.352060 O
0.000000 0.000000 0.647940 O
0.666667 0.333333 0.685393 O
0.666667 0.333333 0.981273 O
0.333333 0.666667 0.018727 O
0.333333 0.666667 0.314607 O
0.333330 0.666670 0.514600 O
0.666670 0.333330 0.485400 O
0.999997 0.000003 0.847933 O
0.333337 0.666663 0.818733 O
0.666663 0.333337 0.181267 O
0.000003 0.999997 0.152067 O
0.333330 0.666670 0.418730 O
0.666670 0.333330 0.581270 O
0.999997 0.000003 0.752063 O
0.333337 0.666663 0.914603 O
0.666663 0.333337 0.085397 O
0.000003 0.999997 0.247937 O
0.000000 0.000000 0.047940 O
0.000000 0.000000 0.952060 O
0.666667 0.333333 0.381273 O
0.666667 0.333333 0.285393 O
0.333333 0.666667 0.714607 O
0.333333 0.666667 0.618727 O
