Li6 Co6 O12
1.0
2.815600 0.000000 0.000000
-1.407800 2.438381 0.000000
0.000000 0.000000 28.108400
Li Co O
   3  6  12
direct
0.000000 0.000000 0.000000 Li
0.666667 0.333333 0.333333 Li
0.333333 0.666667 0.666667 Li
0.000000 0.000000 0.250000 Co
0.666667 0.333333 0.583333 Co
0.333333 0.666667 0.916667 Co
0.000000 0.000000 0.750000 Co
0.666667 0.333333 0.083333 Co
0.333333 0.666667 0.416667 Co
0.000000 0.000000 0.119840 O
0.666667 0.333333 0.453173 O
0.333333 0.666667 0.786507 O
0.000000 0.000000 0.880160 O
0.666667 0.333333 0.213493 O
0.333333 0.666667 0.546827 O
0.333330 0.666670 0.286510 O
0.999997 0.000003 0.619843 O
0.666663 0.333337 0.953177 O
0.333330 0.666670 0.046830 O
0.999997 0.000003 0.380163 O
0.666663 0.333337 0.713497 O
