Li12 Co12 O24
1.0
5.631200 0.000000 0.000000
-2.815600 4.876762 0.000000
0.000000 0.000000 14.054200
Li Co O
   3  12  24
direct
0.666670 0.333330 0.333330 Li
0.333337 0.666663 0.666663 Li
0.000003 0.999997 0.999997 Li
0.000000 0.500000 0.500000 Co
0.500000 0.500000 0.500000 Co
0.500000 0.000000 0.500000 Co
0.666667 0.833333 0.833333 Co
0.166667 0.833333 0.833333 Co
0.166667 0.333333 0.833333 Co
0.333333 0.166667 0.166667 Co
0.833333 0.166667 0.166667 Co
0.833333 0.666667 0.166667 Co
0.666670 0.333330 0.833330 Co
0.333337 0.666663 0.166663 Co
0.000003 0.999997 0.499997 Co
0.000000 0.500000 0.239680 O
0.500000 0.500000 0.239680 O
0.500000 0.000000 0.239680 O
0.666667 0.833333 0.573013 O
0.166667 0.833333 0.573013 O
0.166667 0.333333 0.573013 O
0.333333 0.166667 0.906347 O
0.833333 0.166667 0.906347 O
0.833333 0.666667 0.906347 O
0.000000 0.500000 0.760320 O
0.500000 0.500000 0.760320 O
0.500000 0.000000 0.760320 O
0.666667 0.833333 0.093653 O
0.166667 0.833333 0.093653 O
0.166667 0.333333 0.093653 O
0.333333 0.166667 0.426987 O
0.833333 0.166667 0.426987 O
0.833333 0.666667 0.426987 O
0.666670 0.333330 0.573010 O
0.333337 0.666663 0.906343 O
0.000003 0.999997 0.239677 O
0.666670 0.333330 0.093650 O
0.333337 0.666663 0.426983 O
0.000003 0.999997 0.760317 O
