Li21 Co42 O84
1.0
2.780000 0.000000 0.000000
-1.390000 2.407551 0.000000
0.000000 0.000000 181.650009
Li Co O
   6  42  84
direct
0.666670 0.333330 0.047620 Li
0.333330 0.666670 0.952380 Li
0.333337 0.666663 0.380953 Li
0.999997 0.000003 0.285713 Li
0.000003 0.999997 0.714287 Li
0.666663 0.333337 0.619047 Li
0.000000 0.000000 0.060000 Co
0.000000 0.000000 0.940000 Co
0.666667 0.333333 0.393333 Co
0.666667 0.333333 0.273333 Co
0.333333 0.666667 0.726667 Co
0.333333 0.666667 0.606667 Co
0.666670 0.333330 0.107620 Co
0.333330 0.666670 0.892380 Co
0.333337 0.666663 0.440953 Co
0.999997 0.000003 0.225713 Co
0.000003 0.999997 0.774287 Co
0.666663 0.333337 0.559047 Co
0.666670 0.333330 0.987620 Co
0.333330 0.666670 0.012380 Co
0.333337 0.666663 0.320953 Co
0.999997 0.000003 0.345713 Co
0.000003 0.999997 0.654287 Co
0.666663 0.333337 0.679047 Co
0.333330 0.666670 0.155240 Co
0.666670 0.333330 0.844760 Co
0.999997 0.000003 0.488573 Co
0.333337 0.666663 0.178093 Co
0.666663 0.333337 0.821907 Co
0.000003 0.999997 0.511427 Co
0.333330 0.666670 0.035240 Co
0.666670 0.333330 0.964760 Co
0.999997 0.000003 0.368573 Co
0.333337 0.666663 0.298093 Co
0.666663 0.333337 0.701907 Co
0.000003 0.999997 0.631427 Co
0.000000 0.000000 0.202860 Co
0.000000 0.000000 0.797140 Co
0.666667 0.333333 0.536193 Co
0.666667 0.333333 0.130473 Co
0.333333 0.666667 0.869527 Co
0.333333 0.666667 0.463807 Co
0.000000 0.000000 0.917140 Co
0.000000 0.000000 0.082860 Co
0.666667 0.333333 0.250473 Co
0.666667 0.333333 0.416193 Co
0.333333 0.666667 0.583807 Co
0.333333 0.666667 0.749527 Co
0.000000 0.000000 0.041430 O
0.000000 0.000000 0.958570 O
0.666667 0.333333 0.374763 O
0.666667 0.333333 0.291903 O
0.333333 0.666667 0.708097 O
0.333333 0.666667 0.625237 O
0.666670 0.333330 0.089050 O
0.333330 0.666670 0.910950 O
0.333337 0.666663 0.422383 O
0.999997 0.000003 0.244283 O
0.000003 0.999997 0.755717 O
0.666663 0.333337 0.577617 O
0.666670 0.333330 0.006190 O
0.333330 0.666670 0.993810 O
0.333337 0.666663 0.339523 O
0.999997 0.000003 0.327143 O
0.000003 0.999997 0.672857 O
0.666663 0.333337 0.660477 O
0.333330 0.666670 0.136670 O
0.666670 0.333330 0.863330 O
0.999997 0.000003 0.470003 O
0.333337 0.666663 0.196663 O
0.666663 0.333337 0.803337 O
0.000003 0.999997 0.529997 O
0.333330 0.666670 0.053810 O
0.666670 0.333330 0.946190 O
0.999997 0.000003 0.387143 O
0.333337 0.666663 0.279523 O
0.666663 0.333337 0.720477 O
0.000003 0.999997 0.612857 O
0.000000 0.000000 0.184290 O
0.000000 0.000000 0.815710 O
0.666667 0.333333 0.517623 O
0.666667 0.333333 0.149043 O
0.333333 0.666667 0.850957 O
0.333333 0.666667 0.482377 O
0.000000 0.000000 0.898570 O
0.000000 0.000000 0.101430 O
0.666667 0.333333 0.231903 O
0.666667 0.333333 0.434763 O
0.333333 0.666667 0.565237 O
0.333333 0.666667 0.768097 O
0.000000 0.000000 0.017140 O
0.000000 0.000000 0.982860 O
0.666667 0.333333 0.350473 O
0.666667 0.333333 0.316193 O
0.333333 0.666667 0.683807 O
0.333333 0.666667 0.649527 O
0.666670 0.333330 0.064760 O
0.333330 0.666670 0.935240 O
0.333337 0.666663 0.398093 O
0.999997 0.000003 0.268573 O
0.000003 0.999997 0.731427 O
0.666663 0.333337 0.601907 O
0.666670 0.333330 0.030480 O
0.333330 0.666670 0.969520 O
0.333337 0.666663 0.363813 O
0.999997 0.000003 0.302853 O
0.000003 0.999997 0.697147 O
0.666663 0.333337 0.636187 O
0.333330 0.666670 0.112380 O
0.666670 0.333330 0.887620 O
0.999997 0.000003 0.445713 O
0.333337 0.666663 0.220953 O
0.666663 0.333337 0.779047 O
0.000003 0.999997 0.554287 O
0.333330 0.666670 0.078090 O
0.666670 0.333330 0.921910 O
0.999997 0.000003 0.411423 O
0.333337 0.666663 0.255243 O
0.666663 0.333337 0.744757 O
0.000003 0.999997 0.588577 O
0.000000 0.000000 0.160000 O
0.000000 0.000000 0.840000 O
0.666667 0.333333 0.493333 O
0.666667 0.333333 0.173333 O
0.333333 0.666667 0.826667 O
0.333333 0.666667 0.506667 O
0.000000 0.000000 0.874290 O
0.000000 0.000000 0.125710 O
0.666667 0.333333 0.207623 O
0.666667 0.333333 0.459043 O
0.333333 0.666667 0.540957 O
0.333333 0.666667 0.792377 O
