Li6 Co6 O12
1.0
4.876762 0.000000 0.000000
0.000000 2.815600 0.000000
0.000000 0.000000 14.054200
Li Co O
   2  6  12
direct
0.000000 0.000000 0.000000 Li
0.500000 0.500000 0.000000 Li
0.333330 0.000000 0.833330 Co
0.666670 0.000000 0.166670 Co
0.833330 0.500000 0.833330 Co
0.166670 0.500000 0.166670 Co
0.000000 0.000000 0.500000 Co
0.500000 0.500000 0.500000 Co
0.333330 0.000000 0.573010 O
0.666670 0.000000 0.426990 O
0.833330 0.500000 0.573010 O
0.166670 0.500000 0.426990 O
0.333330 0.000000 0.093650 O
0.666670 0.000000 0.906350 O
0.833330 0.500000 0.093650 O
0.166670 0.500000 0.906350 O
0.000000 0.000000 0.239680 O
0.000000 0.000000 0.760320 O
0.500000 0.500000 0.239680 O
0.500000 0.500000 0.760320 O
