Li6 C36
1.0
7.488164 0.000000 0.000000
-3.744082 6.484940 0.000000
0.000000 0.000000 7.490736
Li C
   2  36
direct
0.666667 0.333333 0.500000 Li
0.666667 0.333333 0.000000 Li
0.555480 0.444520 0.750000 C
0.555480 0.110960 0.750000 C
0.889040 0.444520 0.750000 C
0.555480 0.444520 0.250000 C
0.555480 0.110960 0.250000 C
0.889040 0.444520 0.250000 C
0.777850 0.222150 0.750000 C
0.777850 0.555700 0.750000 C
0.444300 0.222150 0.750000 C
0.777850 0.222150 0.250000 C
0.777850 0.555700 0.250000 C
0.444300 0.222150 0.250000 C
0.222150 0.777850 0.750000 C
0.222150 0.444300 0.750000 C
0.555700 0.777850 0.750000 C
0.222150 0.777850 0.250000 C
0.222150 0.444300 0.250000 C
0.555700 0.777850 0.250000 C
0.888820 0.111180 0.750000 C
0.888820 0.777640 0.750000 C
0.222360 0.111180 0.750000 C
0.888820 0.111180 0.250000 C
0.888820 0.777640 0.250000 C
0.222360 0.111180 0.250000 C
0.444520 0.555480 0.750000 C
0.444520 0.889040 0.750000 C
0.110960 0.555480 0.750000 C
0.444520 0.555480 0.250000 C
0.444520 0.889040 0.250000 C
0.110960 0.555480 0.250000 C
0.111180 0.888820 0.750000 C
0.111180 0.222360 0.750000 C
0.777640 0.888820 0.750000 C
0.111180 0.888820 0.250000 C
0.111180 0.222360 0.250000 C
0.777640 0.888820 0.250000 C
