Li54 C324
1.0
12.898500 0.000000 0.000000
-6.449250 11.170429 0.000000
0.000000 0.000000 21.599998
Li C
   36  324
direct
0.888890 0.777780 0.921290 Li
0.222220 0.111110 0.921290 Li
0.888890 0.111110 0.921290 Li
0.555557 0.111113 0.254623 Li
0.888887 0.444443 0.254623 Li
0.555557 0.444443 0.254623 Li
0.222223 0.444447 0.587957 Li
0.555553 0.777777 0.587957 Li
0.222223 0.777777 0.587957 Li
0.888890 0.444440 0.921290 Li
0.555560 0.444450 0.921290 Li
0.555550 0.111110 0.921290 Li
0.555557 0.777773 0.254623 Li
0.222227 0.777783 0.254623 Li
0.222217 0.444443 0.254623 Li
0.222223 0.111107 0.587957 Li
0.888893 0.111117 0.587957 Li
0.888883 0.777777 0.587957 Li
0.222220 0.777780 0.921290 Li
0.222220 0.444440 0.921290 Li
0.555560 0.777780 0.921290 Li
0.888887 0.111113 0.254623 Li
0.888887 0.777773 0.254623 Li
0.222227 0.111113 0.254623 Li
0.555553 0.444447 0.587957 Li
0.555553 0.111107 0.587957 Li
0.888893 0.444447 0.587957 Li
0.111110 0.888890 0.412040 Li
0.111110 0.222220 0.412040 Li
0.777780 0.888890 0.412040 Li
0.777777 0.222223 0.745373 Li
0.777777 0.555553 0.745373 Li
0.444447 0.222223 0.745373 Li
0.444443 0.555557 0.078707 Li
0.444443 0.888887 0.078707 Li
0.111113 0.555557 0.078707 Li
0.000000 0.777780 0.666667 C
0.222220 0.222220 0.666667 C
0.777780 0.000000 0.666667 C
0.666667 0.111113 0.000000 C
0.888887 0.555553 0.000000 C
0.444447 0.333333 0.000000 C
0.333333 0.444447 0.333333 C
0.555553 0.888887 0.333333 C
0.111113 0.666667 0.333333 C
0.888890 0.555550 0.666667 C
0.444450 0.333340 0.666667 C
0.666660 0.111110 0.666667 C
0.555557 0.888883 0.000000 C
0.111117 0.666673 0.000000 C
0.333327 0.444443 0.000000 C
0.222223 0.222217 0.333333 C
0.777783 0.000007 0.333333 C
0.999993 0.777777 0.333333 C
0.111110 0.666667 0.666667 C
0.333333 0.444443 0.666667 C
0.555557 0.888890 0.666667 C
0.777777 0.000000 0.000000 C
0.000000 0.777777 0.000000 C
0.222223 0.222223 0.000000 C
0.444443 0.333333 0.333333 C
0.666667 0.111110 0.333333 C
0.888890 0.555557 0.333333 C
0.333333 0.111110 0.666667 C
0.888890 0.222223 0.666667 C
0.777777 0.666667 0.666667 C
0.000000 0.444443 0.000000 C
0.555557 0.555557 0.000000 C
0.444443 0.000000 0.000000 C
0.666667 0.777777 0.333333 C
0.222223 0.888890 0.333333 C
0.111110 0.333333 0.333333 C
0.666667 0.444450 0.666667 C
0.555550 0.222217 0.666667 C
0.777783 0.333333 0.666667 C
0.333333 0.777783 0.000000 C
0.222217 0.555550 0.000000 C
0.444450 0.666667 0.000000 C
0.000000 0.111117 0.333333 C
0.888883 0.888883 0.333333 C
0.111117 0.000000 0.333333 C
0.666667 0.777780 0.666667 C
0.222220 0.888887 0.666667 C
0.111113 0.333333 0.666667 C
0.333333 0.111113 0.000000 C
0.888887 0.222220 0.000000 C
0.777780 0.666667 0.000000 C
0.000000 0.444447 0.333333 C
0.555553 0.555553 0.333333 C
0.444447 0.000000 0.333333 C
0.333333 0.777780 0.666667 C
0.222220 0.555553 0.666667 C
0.444447 0.666667 0.666667 C
0.000000 0.111113 0.000000 C
0.888887 0.888887 0.000000 C
0.111113 0.000000 0.000000 C
0.666667 0.444447 0.333333 C
0.555553 0.222220 0.333333 C
0.777780 0.333333 0.333333 C
0.444450 0.000000 0.666667 C
0.000000 0.444450 0.666667 C
0.555550 0.555550 0.666667 C
0.111117 0.333333 0.000000 C
0.666667 0.777783 0.000000 C
0.222217 0.888883 0.000000 C
0.777783 0.666667 0.333333 C
0.333333 0.111117 0.333333 C
0.888883 0.222217 0.333333 C
0.000000 0.111110 0.666667 C
0.888890 0.888890 0.666667 C
0.111110 0.000000 0.666667 C
0.666667 0.444443 0.000000 C
0.555557 0.222223 0.000000 C
0.777777 0.333333 0.000000 C
0.333333 0.777777 0.333333 C
0.222223 0.555557 0.333333 C
0.444443 0.666667 0.333333 C
0.111110 0.888890 0.666667 C
0.111110 0.222220 0.666667 C
0.777780 0.888890 0.666667 C
0.777777 0.222223 0.000000 C
0.777777 0.555553 0.000000 C
0.444447 0.222223 0.000000 C
0.444443 0.555557 0.333333 C
0.444443 0.888887 0.333333 C
0.111113 0.555557 0.333333 C
0.777780 0.555560 0.666667 C
0.444440 0.222220 0.666667 C
0.777780 0.222220 0.666667 C
0.444447 0.888893 0.000000 C
0.111107 0.555553 0.000000 C
0.444447 0.555553 0.000000 C
0.111113 0.222227 0.333333 C
0.777773 0.888887 0.333333 C
0.111113 0.888887 0.333333 C
0.111110 0.555550 0.666667 C
0.444450 0.555560 0.666667 C
0.444440 0.888890 0.666667 C
0.777777 0.888883 0.000000 C
0.111117 0.888893 0.000000 C
0.111107 0.222223 0.000000 C
0.444443 0.222217 0.333333 C
0.777783 0.222227 0.333333 C
0.777773 0.555557 0.333333 C
0.888890 0.777780 0.666667 C
0.222220 0.111110 0.666667 C
0.888890 0.111110 0.666667 C
0.555557 0.111113 0.000000 C
0.888887 0.444443 0.000000 C
0.555557 0.444443 0.000000 C
0.222223 0.444447 0.333333 C
0.555553 0.777777 0.333333 C
0.222223 0.777777 0.333333 C
0.222220 0.777780 0.666667 C
0.222220 0.444440 0.666667 C
0.555560 0.777780 0.666667 C
0.888887 0.111113 0.000000 C
0.888887 0.777773 0.000000 C
0.222227 0.111113 0.000000 C
0.555553 0.444447 0.333333 C
0.555553 0.111107 0.333333 C
0.888893 0.444447 0.333333 C
0.888890 0.444440 0.666667 C
0.555560 0.444450 0.666667 C
0.555550 0.111110 0.666667 C
0.555557 0.777773 0.000000 C
0.222227 0.777783 0.000000 C
0.222217 0.444443 0.000000 C
0.222223 0.111107 0.333333 C
0.888893 0.111117 0.333333 C
0.888883 0.777777 0.333333 C
0.777780 0.666667 0.833330 C
0.333333 0.111113 0.833330 C
0.888887 0.222220 0.833330 C
0.444447 0.000000 0.166663 C
0.000000 0.444447 0.166663 C
0.555553 0.555553 0.166663 C
0.111113 0.333333 0.499997 C
0.666667 0.777780 0.499997 C
0.222220 0.888887 0.499997 C
0.000000 0.444440 0.833330 C
0.555560 0.555560 0.833330 C
0.444440 0.000000 0.833330 C
0.666667 0.777773 0.166663 C
0.222227 0.888893 0.166663 C
0.111107 0.333333 0.166663 C
0.333333 0.111107 0.499997 C
0.888893 0.222227 0.499997 C
0.777773 0.666667 0.499997 C
0.222220 0.888890 0.833330 C
0.111110 0.333330 0.833330 C
0.666670 0.777780 0.833330 C
0.888887 0.222223 0.166663 C
0.777777 0.666663 0.166663 C
0.333337 0.111113 0.166663 C
0.555553 0.555557 0.499997 C
0.444443 0.999997 0.499997 C
0.000003 0.444447 0.499997 C
0.111110 0.000000 0.833330 C
0.000000 0.111110 0.833330 C
0.888890 0.888890 0.833330 C
0.777777 0.333333 0.166663 C
0.666667 0.444443 0.166663 C
0.555557 0.222223 0.166663 C
0.444443 0.666667 0.499997 C
0.333333 0.777777 0.499997 C
0.222223 0.555557 0.499997 C
0.444440 0.333333 0.833330 C
0.666667 0.111107 0.833330 C
0.888893 0.555560 0.833330 C
0.111107 0.666667 0.166663 C
0.333333 0.444440 0.166663 C
0.555560 0.888893 0.166663 C
0.777773 0.000000 0.499997 C
0.000000 0.777773 0.499997 C
0.222227 0.222227 0.499997 C
0.444440 0.666667 0.833330 C
0.333333 0.777773 0.833330 C
0.222227 0.555560 0.833330 C
0.111107 0.000000 0.166663 C
0.000000 0.111107 0.166663 C
0.888893 0.888893 0.166663 C
0.777773 0.333333 0.499997 C
0.666667 0.444440 0.499997 C
0.555560 0.222227 0.499997 C
0.111110 0.666667 0.833330 C
0.333333 0.444443 0.833330 C
0.555557 0.888890 0.833330 C
0.777777 0.000000 0.166663 C
0.000000 0.777777 0.166663 C
0.222223 0.222223 0.166663 C
0.444443 0.333333 0.499997 C
0.666667 0.111110 0.499997 C
0.888890 0.555557 0.499997 C
0.555560 0.222220 0.833330 C
0.777780 0.333340 0.833330 C
0.666660 0.444440 0.833330 C
0.222227 0.555553 0.166663 C
0.444447 0.666673 0.166663 C
0.333327 0.777773 0.166663 C
0.888893 0.888887 0.499997 C
0.111113 0.000007 0.499997 C
0.999993 0.111107 0.499997 C
0.777780 0.000000 0.833330 C
0.000000 0.777780 0.833330 C
0.222220 0.222220 0.833330 C
0.444447 0.333333 0.166663 C
0.666667 0.111113 0.166663 C
0.888887 0.555553 0.166663 C
0.111113 0.666667 0.499997 C
0.333333 0.444447 0.499997 C
0.555553 0.888887 0.499997 C
0.000000 0.888880 0.833330 C
0.111120 0.111120 0.833330 C
0.888880 0.000000 0.833330 C
0.666667 0.222213 0.166663 C
0.777787 0.444453 0.166663 C
0.555547 0.333333 0.166663 C
0.333333 0.555547 0.499997 C
0.444453 0.777787 0.499997 C
0.222213 0.666667 0.499997 C
0.777780 0.444450 0.833330 C
0.555550 0.333330 0.833330 C
0.666670 0.222220 0.833330 C
0.444447 0.777783 0.166663 C
0.222217 0.666663 0.166663 C
0.333337 0.555553 0.166663 C
0.111113 0.111117 0.499997 C
0.888883 0.999997 0.499997 C
0.000003 0.888887 0.499997 C
0.222220 0.666667 0.833330 C
0.333333 0.555553 0.833330 C
0.444447 0.777780 0.833330 C
0.888887 0.000000 0.166663 C
0.000000 0.888887 0.166663 C
0.111113 0.111113 0.166663 C
0.555553 0.333333 0.499997 C
0.666667 0.222220 0.499997 C
0.777780 0.444447 0.499997 C
0.333333 0.222220 0.833330 C
0.777780 0.111113 0.833330 C
0.888887 0.666667 0.833330 C
0.000000 0.555553 0.166663 C
0.444447 0.444447 0.166663 C
0.555553 0.000000 0.166663 C
0.666667 0.888887 0.499997 C
0.111113 0.777780 0.499997 C
0.222220 0.333333 0.499997 C
0.666667 0.555550 0.833330 C
0.444450 0.111117 0.833330 C
0.888883 0.333333 0.833330 C
0.333333 0.888883 0.166663 C
0.111117 0.444450 0.166663 C
0.555550 0.666667 0.166663 C
0.000000 0.222217 0.499997 C
0.777783 0.777783 0.499997 C
0.222217 0.000000 0.499997 C
0.666667 0.888880 0.833330 C
0.111120 0.777787 0.833330 C
0.222213 0.333333 0.833330 C
0.333333 0.222213 0.166663 C
0.777787 0.111120 0.166663 C
0.888880 0.666667 0.166663 C
0.000000 0.555547 0.499997 C
0.444453 0.444453 0.499997 C
0.555547 0.000000 0.499997 C
0.333333 0.888880 0.833330 C
0.111120 0.444453 0.833330 C
0.555547 0.666667 0.833330 C
0.000000 0.222213 0.166663 C
0.777787 0.777787 0.166663 C
0.222213 0.000000 0.166663 C
0.666667 0.555547 0.499997 C
0.444453 0.111120 0.499997 C
0.888880 0.333333 0.499997 C
0.555550 0.000000 0.833330 C
0.000000 0.555550 0.833330 C
0.444450 0.444450 0.833330 C
0.222217 0.333333 0.166663 C
0.666667 0.888883 0.166663 C
0.111117 0.777783 0.166663 C
0.888883 0.666667 0.499997 C
0.333333 0.222217 0.499997 C
0.777783 0.111117 0.499997 C
0.000000 0.222220 0.833330 C
0.777780 0.777780 0.833330 C
0.222220 0.000000 0.833330 C
0.666667 0.555553 0.166663 C
0.444447 0.111113 0.166663 C
0.888887 0.333333 0.166663 C
0.333333 0.888887 0.499997 C
0.111113 0.444447 0.499997 C
0.555553 0.666667 0.499997 C
0.000000 0.666667 0.666667 C
0.333333 0.333333 0.666667 C
0.666667 0.000000 0.666667 C
0.666667 0.000000 0.000000 C
0.000000 0.666667 0.000000 C
0.333333 0.333333 0.000000 C
0.333333 0.333333 0.333333 C
0.666667 0.000000 0.333333 C
0.000000 0.666667 0.333333 C
0.333333 0.000000 0.666667 C
0.000000 0.333333 0.666667 C
0.666667 0.666667 0.666667 C
0.000000 0.333333 0.000000 C
0.666667 0.666667 0.000000 C
0.333333 0.000000 0.000000 C
0.666667 0.666667 0.333333 C
0.333333 0.000000 0.333333 C
0.000000 0.333333 0.333333 C
0.666667 0.333333 0.666667 C
0.333333 0.666667 0.000000 C
0.000000 0.000000 0.333333 C
0.333333 0.666667 0.666667 C
0.000000 0.000000 0.000000 C
0.666667 0.333333 0.333333 C
0.000000 0.000000 0.666667 C
0.666667 0.333333 0.000000 C
0.333333 0.666667 0.333333 C
