Li12 Co12 O24
1.0
1.625574 0.000000 -74.955733
0.000000 2.815600 0.000000
0.000000 0.000000 84.325203
Li Co O
   8  12  24
direct
0.000000 0.000000 0.583330 Li
0.000000 0.000000 0.416670 Li
0.500000 0.500000 0.583330 Li
0.500000 0.500000 0.416670 Li
0.500000 0.500000 0.083330 Li
0.500000 0.500000 0.916670 Li
0.000000 0.000000 0.083330 Li
0.000000 0.000000 0.916670 Li
0.000000 0.000000 0.666670 Co
0.000000 0.000000 0.333330 Co
0.500000 0.500000 0.666670 Co
0.500000 0.500000 0.333330 Co
0.000000 0.000000 0.500000 Co
0.500000 0.500000 0.500000 Co
0.500000 0.500000 0.166670 Co
0.500000 0.500000 0.833330 Co
0.000000 0.000000 0.166670 Co
0.000000 0.000000 0.833330 Co
0.500000 0.500000 0.000000 Co
0.000000 0.000000 0.000000 Co
0.000000 0.000000 0.623280 O
0.000000 0.000000 0.376720 O
0.500000 0.500000 0.623280 O
0.500000 0.500000 0.376720 O
0.000000 0.000000 0.543390 O
0.000000 0.000000 0.456610 O
0.500000 0.500000 0.543390 O
0.500000 0.500000 0.456610 O
0.500000 0.500000 0.123280 O
0.500000 0.500000 0.876720 O
0.000000 0.000000 0.123280 O
0.000000 0.000000 0.876720 O
0.500000 0.500000 0.043390 O
0.500000 0.500000 0.956610 O
0.000000 0.000000 0.043390 O
0.000000 0.000000 0.956610 O
0.000000 0.000000 0.289950 O
0.000000 0.000000 0.710050 O
0.500000 0.500000 0.289950 O
0.500000 0.500000 0.710050 O
0.000000 0.000000 0.789950 O
0.000000 0.000000 0.210050 O
0.500000 0.500000 0.789950 O
0.500000 0.500000 0.210050 O
