Li24 Co48 O96
1.0
2.780000 0.000000 0.000000
-1.390000 2.407551 0.000000
0.000000 0.000000 207.600006
Li Co O
   21  48  96
direct
0.000000 0.000000 0.687500 Li
0.666667 0.333333 0.020833 Li
0.333333 0.666667 0.354167 Li
0.333330 0.666670 0.729170 Li
0.999997 0.000003 0.062503 Li
0.666663 0.333337 0.395837 Li
0.666670 0.333330 0.770830 Li
0.333337 0.666663 0.104163 Li
0.000003 0.999997 0.437497 Li
0.000000 0.000000 0.812500 Li
0.666667 0.333333 0.145833 Li
0.333333 0.666667 0.479167 Li
0.000000 0.000000 0.937500 Li
0.666667 0.333333 0.270833 Li
0.333333 0.666667 0.604167 Li
0.000000 0.000000 0.187500 Li
0.666667 0.333333 0.520833 Li
0.333333 0.666667 0.854167 Li
0.000000 0.000000 0.562500 Li
0.666667 0.333333 0.895833 Li
0.333333 0.666667 0.229167 Li
0.000000 0.000000 0.740000 Co
0.666667 0.333333 0.073333 Co
0.333333 0.666667 0.406667 Co
0.000000 0.000000 0.635000 Co
0.666667 0.333333 0.968333 Co
0.333333 0.666667 0.301667 Co
0.333330 0.666670 0.781670 Co
0.999997 0.000003 0.115003 Co
0.666663 0.333337 0.448337 Co
0.333330 0.666670 0.676670 Co
0.999997 0.000003 0.010003 Co
0.666663 0.333337 0.343337 Co
0.666670 0.333330 0.823330 Co
0.333337 0.666663 0.156663 Co
0.000003 0.999997 0.489997 Co
0.666670 0.333330 0.718330 Co
0.333337 0.666663 0.051663 Co
0.000003 0.999997 0.384997 Co
0.000000 0.000000 0.865000 Co
0.666667 0.333333 0.198333 Co
0.333333 0.666667 0.531667 Co
0.000000 0.000000 0.990000 Co
0.666667 0.333333 0.323333 Co
0.333333 0.666667 0.656667 Co
0.000000 0.000000 0.240000 Co
0.666667 0.333333 0.573333 Co
0.333333 0.666667 0.906667 Co
0.000000 0.000000 0.365000 Co
0.666667 0.333333 0.698333 Co
0.333333 0.666667 0.031667 Co
0.000000 0.000000 0.615000 Co
0.666667 0.333333 0.948333 Co
0.333333 0.666667 0.281667 Co
0.000000 0.000000 0.760000 Co
0.666667 0.333333 0.093333 Co
0.333333 0.666667 0.426667 Co
0.333330 0.666670 0.801670 Co
0.999997 0.000003 0.135003 Co
0.666663 0.333337 0.468337 Co
0.666670 0.333330 0.843330 Co
0.333337 0.666663 0.176663 Co
0.000003 0.999997 0.509997 Co
0.000000 0.000000 0.885000 Co
0.666667 0.333333 0.218333 Co
0.333333 0.666667 0.551667 Co
0.333330 0.666670 0.926670 Co
0.999997 0.000003 0.260003 Co
0.666663 0.333337 0.593337 Co
0.000000 0.000000 0.723750 O
0.666667 0.333333 0.057083 O
0.333333 0.666667 0.390417 O
0.000000 0.000000 0.651250 O
0.666667 0.333333 0.984583 O
0.333333 0.666667 0.317917 O
0.333330 0.666670 0.765420 O
0.999997 0.000003 0.098753 O
0.666663 0.333337 0.432087 O
0.333330 0.666670 0.692920 O
0.999997 0.000003 0.026253 O
0.666663 0.333337 0.359587 O
0.666670 0.333330 0.807080 O
0.333337 0.666663 0.140413 O
0.000003 0.999997 0.473747 O
0.666670 0.333330 0.734580 O
0.333337 0.666663 0.067913 O
0.000003 0.999997 0.401247 O
0.000000 0.000000 0.848750 O
0.666667 0.333333 0.182083 O
0.333333 0.666667 0.515417 O
0.000000 0.000000 0.973750 O
0.666667 0.333333 0.307083 O
0.333333 0.666667 0.640417 O
0.000000 0.000000 0.223750 O
0.666667 0.333333 0.557083 O
0.333333 0.666667 0.890417 O
0.000000 0.000000 0.348750 O
0.666667 0.333333 0.682083 O
0.333333 0.666667 0.015417 O
0.000000 0.000000 0.598750 O
0.666667 0.333333 0.932083 O
0.333333 0.666667 0.265417 O
0.000000 0.000000 0.776250 O
0.666667 0.333333 0.109583 O
0.333333 0.666667 0.442917 O
0.333330 0.666670 0.817920 O
0.999997 0.000003 0.151253 O
0.666663 0.333337 0.484587 O
0.666670 0.333330 0.859580 O
0.333337 0.666663 0.192913 O
0.000003 0.999997 0.526247 O
0.000000 0.000000 0.901250 O
0.666667 0.333333 0.234583 O
0.333333 0.666667 0.567917 O
0.333330 0.666670 0.942920 O
0.999997 0.000003 0.276253 O
0.666663 0.333337 0.609587 O
0.000000 0.000000 0.702500 O
0.666667 0.333333 0.035833 O
0.333333 0.666667 0.369167 O
0.000000 0.000000 0.672500 O
0.666667 0.333333 0.005833 O
0.333333 0.666667 0.339167 O
0.333330 0.666670 0.744170 O
0.999997 0.000003 0.077503 O
0.666663 0.333337 0.410837 O
0.333330 0.666670 0.714170 O
0.999997 0.000003 0.047503 O
0.666663 0.333337 0.380837 O
0.666670 0.333330 0.785830 O
0.333337 0.666663 0.119163 O
0.000003 0.999997 0.452497 O
0.666670 0.333330 0.755830 O
0.333337 0.666663 0.089163 O
0.000003 0.999997 0.422497 O
0.000000 0.000000 0.827500 O
0.666667 0.333333 0.160833 O
0.333333 0.666667 0.494167 O
0.000000 0.000000 0.952500 O
0.666667 0.333333 0.285833 O
0.333333 0.666667 0.619167 O
0.000000 0.000000 0.202500 O
0.666667 0.333333 0.535833 O
0.333333 0.666667 0.869167 O
0.000000 0.000000 0.327500 O
0.666667 0.333333 0.660833 O
0.333333 0.666667 0.994167 O
0.000000 0.000000 0.577500 O
0.666667 0.333333 0.910833 O
0.333333 0.666667 0.244167 O
0.000000 0.000000 0.797500 O
0.666667 0.333333 0.130833 O
0.333333 0.666667 0.464167 O
0.333330 0.666670 0.839170 O
0.999997 0.000003 0.172503 O
0.666663 0.333337 0.505837 O
0.666670 0.333330 0.880830 O
0.333337 0.666663 0.214163 O
0.000003 0.999997 0.547497 O
0.000000 0.000000 0.922500 O
0.666667 0.333333 0.255833 O
0.333333 0.666667 0.589167 O
0.333330 0.666670 0.964170 O
0.999997 0.000003 0.297503 O
0.666663 0.333337 0.630837 O
