Li6 Co6 O12
1.0
4.607268 0.000000 -13.277561
0.000000 2.815600 0.000000
0.000000 0.000000 14.876267
Li Co O
   1  6  12
direct
0.500000 0.500000 0.500000 Li
0.500000 0.000000 0.666670 Co
0.500000 0.000000 0.333330 Co
0.000000 0.500000 0.166670 Co
0.000000 0.500000 0.833330 Co
0.500000 0.000000 0.000000 Co
0.000000 0.500000 0.500000 Co
0.239680 0.000000 0.666670 O
0.760320 0.000000 0.333330 O
0.739680 0.500000 0.166670 O
0.260320 0.500000 0.833330 O
0.260320 0.500000 0.166670 O
0.739680 0.500000 0.833330 O
0.760320 0.000000 0.666670 O
0.239680 0.000000 0.333330 O
0.239680 0.000000 0.000000 O
0.760320 0.000000 0.000000 O
0.739680 0.500000 0.500000 O
0.260320 0.500000 0.500000 O
