Li8 Co8 O16
1.0
3.251174 0.000000 -18.738933
0.000000 2.815600 0.000000
0.000000 0.000000 28.108400
Li Co O
   6  8  16
direct
0.750000 0.000000 0.000000 Li
0.250000 0.000000 0.000000 Li
0.500000 0.500000 0.000000 Li
0.500000 0.500000 0.500000 Li
0.750000 0.000000 0.500000 Li
0.250000 0.000000 0.500000 Li
0.750000 0.000000 0.250000 Co
0.250000 0.000000 0.750000 Co
0.250000 0.000000 0.250000 Co
0.750000 0.000000 0.750000 Co
0.500000 0.500000 0.250000 Co
0.500000 0.500000 0.750000 Co
0.000000 0.500000 0.250000 Co
0.000000 0.500000 0.750000 Co
0.750000 0.000000 0.119840 O
0.250000 0.000000 0.880160 O
0.250000 0.000000 0.119840 O
0.750000 0.000000 0.880160 O
0.500000 0.500000 0.119840 O
0.500000 0.500000 0.880160 O
0.000000 0.500000 0.119840 O
0.000000 0.500000 0.880160 O
0.000000 0.500000 0.619840 O
0.000000 0.500000 0.380160 O
0.500000 0.500000 0.619840 O
0.500000 0.500000 0.380160 O
0.750000 0.000000 0.619840 O
0.250000 0.000000 0.380160 O
0.250000 0.000000 0.619840 O
0.750000 0.000000 0.380160 O
