Li6 Co12 O24
1.0
2.780000 0.000000 0.000000
-1.390000 2.407551 0.000000
0.000000 0.000000 51.900002
Li Co O
   3  12  24
direct
0.666670 0.666670 0.000000 Li
0.333330 0.000000 0.666667 Li
0.000000 0.333330 0.333333 Li
0.000000 0.333330 0.043330 Co
0.666670 0.666670 0.709997 Co
0.333330 0.000000 0.376663 Co
0.333330 0.000000 0.956670 Co
0.666670 0.666670 0.290003 Co
0.000000 0.333330 0.623337 Co
0.666670 0.666670 0.210000 Co
0.333330 0.000000 0.876667 Co
0.000000 0.333330 0.543333 Co
0.666670 0.666670 0.790000 Co
0.000000 0.333330 0.123333 Co
0.333330 0.000000 0.456667 Co
0.000000 0.333330 0.978330 O
0.666670 0.666670 0.644997 O
0.333330 0.000000 0.311663 O
0.333330 0.000000 0.021670 O
0.666670 0.666670 0.355003 O
0.000000 0.333330 0.688337 O
0.666670 0.666670 0.145000 O
0.333330 0.000000 0.811667 O
0.000000 0.333330 0.478333 O
0.666670 0.666670 0.855000 O
0.000000 0.333330 0.188333 O
0.333330 0.000000 0.521667 O
0.000000 0.333330 0.893330 O
0.666670 0.666670 0.559997 O
0.333330 0.000000 0.226663 O
0.333330 0.000000 0.106670 O
0.666670 0.666670 0.440003 O
0.000000 0.333330 0.773337 O
0.666670 0.666670 0.060000 O
0.333330 0.000000 0.726667 O
0.000000 0.333330 0.393333 O
0.666670 0.666670 0.940000 O
0.000000 0.333330 0.273333 O
0.333330 0.000000 0.606667 O
