Li8 C48
1.0
8.599000 0.000000 0.000000
-4.299500 7.446952 0.000000
0.000000 0.000000 7.200000
Li C
   1  48
direct
0.333333 0.666667 0.236120 Li
0.666667 0.666667 0.000000 C
0.333333 0.000000 0.000000 C
0.000000 0.333333 0.000000 C
0.333333 0.500000 0.000000 C
0.500000 0.833333 0.000000 C
0.166667 0.666667 0.000000 C
0.500000 0.333333 0.000000 C
0.666667 0.166667 0.000000 C
0.833333 0.500000 0.000000 C
0.166670 0.166670 0.000000 C
0.833330 0.000000 0.000000 C
0.000000 0.833330 0.000000 C
0.833340 0.666667 0.000000 C
0.333333 0.166673 0.000000 C
0.833327 0.166660 0.000000 C
0.333333 0.666667 0.000000 C
0.666667 0.833340 0.000000 C
0.166660 0.833327 0.000000 C
0.166673 0.333333 0.000000 C
0.666667 0.333333 0.000000 C
0.500000 0.833330 0.500000 C
0.166670 0.666670 0.500000 C
0.333330 0.500000 0.500000 C
0.166670 0.166670 0.500000 C
0.833330 0.000000 0.500000 C
0.000000 0.833330 0.500000 C
0.833330 0.500000 0.500000 C
0.500000 0.333330 0.500000 C
0.666670 0.166670 0.500000 C
0.000000 0.333333 0.500000 C
0.666667 0.666667 0.500000 C
0.333333 0.000000 0.500000 C
0.833320 0.833320 0.500000 C
0.166680 0.000000 0.500000 C
0.000000 0.166680 0.500000 C
0.166670 0.500000 0.500000 C
0.500000 0.666670 0.500000 C
0.333330 0.833330 0.500000 C
0.500000 0.166670 0.500000 C
0.833330 0.333330 0.500000 C
0.666670 0.500000 0.500000 C
0.333333 0.333333 0.500000 C
0.666667 0.000000 0.500000 C
0.000000 0.666667 0.500000 C
0.500000 0.500000 0.000000 C
0.500000 0.000000 0.000000 C
0.000000 0.500000 0.000000 C
0.000000 0.000000 0.000000 C
