Li6 Co12 O24
1.0
2.780000 0.000000 0.000000
-1.390000 2.407551 0.000000
0.000000 0.000000 51.900002
Li Co O
   4  12  24
direct
0.666670 0.333330 0.333330 Li
0.333330 0.666670 0.166670 Li
0.333330 0.666670 0.666670 Li
0.666670 0.333330 0.833330 Li
0.666670 0.333330 0.543330 Co
0.333330 0.666670 0.956670 Co
0.333330 0.666670 0.456670 Co
0.666670 0.333330 0.043330 Co
0.666670 0.333330 0.123330 Co
0.333330 0.666670 0.376670 Co
0.333330 0.666670 0.876670 Co
0.666670 0.333330 0.623330 Co
0.000000 0.000000 0.710000 Co
0.000000 0.000000 0.790000 Co
0.000000 0.000000 0.290000 Co
0.000000 0.000000 0.210000 Co
0.666670 0.333330 0.478330 O
0.333330 0.666670 0.021670 O
0.333330 0.666670 0.521670 O
0.666670 0.333330 0.978330 O
0.666670 0.333330 0.188330 O
0.333330 0.666670 0.311670 O
0.333330 0.666670 0.811670 O
0.666670 0.333330 0.688330 O
0.000000 0.000000 0.645000 O
0.000000 0.000000 0.855000 O
0.000000 0.000000 0.355000 O
0.000000 0.000000 0.145000 O
0.666670 0.333330 0.393330 O
0.333330 0.666670 0.106670 O
0.333330 0.666670 0.606670 O
0.666670 0.333330 0.893330 O
0.666670 0.333330 0.273330 O
0.333330 0.666670 0.226670 O
0.333330 0.666670 0.726670 O
0.666670 0.333330 0.773330 O
0.000000 0.000000 0.560000 O
0.000000 0.000000 0.940000 O
0.000000 0.000000 0.440000 O
0.000000 0.000000 0.060000 O
