Li12 Co12 O24
1.0
1.625587 0.000000 -9.369466
0.000000 8.446800 0.000000
0.000000 0.000000 28.108400
Li Co O
   4  12  24
direct
0.000000 0.000000 0.000000 Li
0.500000 0.500000 0.000000 Li
0.500000 0.500000 0.500000 Li
0.000000 0.000000 0.500000 Li
0.000000 0.000000 0.250000 Co
0.000000 0.000000 0.750000 Co
0.500000 0.500000 0.250000 Co
0.500000 0.500000 0.750000 Co
0.500000 0.166670 0.250000 Co
0.500000 0.166670 0.750000 Co
0.500000 0.833330 0.750000 Co
0.500000 0.833330 0.250000 Co
0.000000 0.666670 0.250000 Co
0.000000 0.666670 0.750000 Co
0.000000 0.333330 0.750000 Co
0.000000 0.333330 0.250000 Co
0.000000 0.000000 0.119840 O
0.000000 0.000000 0.880160 O
0.500000 0.500000 0.119840 O
0.500000 0.500000 0.880160 O
0.500000 0.166670 0.119840 O
0.500000 0.166670 0.880160 O
0.500000 0.833330 0.880160 O
0.500000 0.833330 0.119840 O
0.000000 0.666670 0.119840 O
0.000000 0.666670 0.880160 O
0.000000 0.333330 0.880160 O
0.000000 0.333330 0.119840 O
0.500000 0.833330 0.619840 O
0.500000 0.833330 0.380160 O
0.500000 0.166670 0.380160 O
0.500000 0.166670 0.619840 O
0.000000 0.333330 0.619840 O
0.000000 0.333330 0.380160 O
0.000000 0.666670 0.380160 O
0.000000 0.666670 0.619840 O
0.500000 0.500000 0.619840 O
0.500000 0.500000 0.380160 O
0.000000 0.000000 0.619840 O
0.000000 0.000000 0.380160 O
