Li6 Co12 O24
1.0
2.780000 0.000000 0.000000
-1.390000 2.407551 0.000000
0.000000 0.000000 51.900002
Li Co O
   3  12  24
direct
0.000000 0.000000 0.000000 Li
0.666667 0.333333 0.333333 Li
0.333333 0.666667 0.666667 Li
0.000000 0.000000 0.210000 Co
0.000000 0.000000 0.790000 Co
0.666667 0.333333 0.543333 Co
0.666667 0.333333 0.123333 Co
0.333333 0.666667 0.876667 Co
0.333333 0.666667 0.456667 Co
0.333330 0.666670 0.376670 Co
0.666670 0.333330 0.623330 Co
0.999997 0.000003 0.710003 Co
0.333337 0.666663 0.956663 Co
0.666663 0.333337 0.043337 Co
0.000003 0.999997 0.289997 Co
0.000000 0.000000 0.145000 O
0.000000 0.000000 0.855000 O
0.666667 0.333333 0.478333 O
0.666667 0.333333 0.188333 O
0.333333 0.666667 0.811667 O
0.333333 0.666667 0.521667 O
0.333330 0.666670 0.311670 O
0.666670 0.333330 0.688330 O
0.999997 0.000003 0.645003 O
0.333337 0.666663 0.021663 O
0.666663 0.333337 0.978337 O
0.000003 0.999997 0.354997 O
0.000000 0.000000 0.060000 O
0.000000 0.000000 0.940000 O
0.666667 0.333333 0.393333 O
0.666667 0.333333 0.273333 O
0.333333 0.666667 0.726667 O
0.333333 0.666667 0.606667 O
0.333330 0.666670 0.226670 O
0.666670 0.333330 0.773330 O
0.999997 0.000003 0.560003 O
0.333337 0.666663 0.106663 O
0.666663 0.333337 0.893337 O
0.000003 0.999997 0.439997 O
