Li36 C216
1.0
7.446952 0.000000 0.000000
-3.723476 6.449250 0.000000
0.000000 0.000000 43.199997
Li C
   27  216
direct
0.333333 0.333333 0.043980 Li
0.666667 0.000000 0.043980 Li
0.000000 0.666667 0.043980 Li
0.000000 0.666667 0.377313 Li
0.333333 0.333333 0.377313 Li
0.666667 0.000000 0.377313 Li
0.666667 0.000000 0.710647 Li
0.000000 0.666667 0.710647 Li
0.333333 0.333333 0.710647 Li
0.333333 0.000000 0.789350 Li
0.000000 0.333333 0.789350 Li
0.666667 0.666667 0.789350 Li
0.000000 0.333333 0.122683 Li
0.666667 0.666667 0.122683 Li
0.333333 0.000000 0.122683 Li
0.666667 0.666667 0.456017 Li
0.333333 0.000000 0.456017 Li
0.000000 0.333333 0.456017 Li
0.333333 0.333333 0.210650 Li
0.666667 0.000000 0.210650 Li
0.000000 0.666667 0.210650 Li
0.000000 0.666667 0.543983 Li
0.333333 0.333333 0.543983 Li
0.666667 0.000000 0.543983 Li
0.666667 0.000000 0.877317 Li
0.000000 0.666667 0.877317 Li
0.333333 0.333333 0.877317 Li
0.222220 0.111110 0.916670 C
0.888890 0.111110 0.916670 C
0.888890 0.777780 0.916670 C
0.888887 0.444443 0.250003 C
0.555557 0.444443 0.250003 C
0.555557 0.111113 0.250003 C
0.555553 0.777777 0.583337 C
0.222223 0.777777 0.583337 C
0.222223 0.444447 0.583337 C
0.555560 0.777770 0.916670 C
0.222230 0.777790 0.916670 C
0.222210 0.444440 0.916670 C
0.222227 0.111103 0.250003 C
0.888897 0.111123 0.250003 C
0.888877 0.777773 0.250003 C
0.888893 0.444437 0.583337 C
0.555563 0.444457 0.583337 C
0.555543 0.111107 0.583337 C
0.888890 0.444440 0.916670 C
0.555560 0.444450 0.916670 C
0.555550 0.111110 0.916670 C
0.555557 0.777773 0.250003 C
0.222227 0.777783 0.250003 C
0.222217 0.444443 0.250003 C
0.222223 0.111107 0.583337 C
0.888893 0.111117 0.583337 C
0.888883 0.777777 0.583337 C
0.222220 0.111110 0.083330 C
0.888890 0.111110 0.083330 C
0.888890 0.777780 0.083330 C
0.888887 0.444443 0.416663 C
0.555557 0.444443 0.416663 C
0.555557 0.111113 0.416663 C
0.555553 0.777777 0.749997 C
0.222223 0.777777 0.749997 C
0.222223 0.444447 0.749997 C
0.222220 0.111110 0.416670 C
0.888890 0.111110 0.416670 C
0.888890 0.777780 0.416670 C
0.888887 0.444443 0.750003 C
0.555557 0.444443 0.750003 C
0.555557 0.111113 0.750003 C
0.555553 0.777777 0.083337 C
0.222223 0.777777 0.083337 C
0.222223 0.444447 0.083337 C
0.222220 0.111110 0.750000 C
0.888890 0.111110 0.750000 C
0.888890 0.777780 0.750000 C
0.888887 0.444443 0.083333 C
0.555557 0.444443 0.083333 C
0.555557 0.111113 0.083333 C
0.555553 0.777777 0.416667 C
0.222223 0.777777 0.416667 C
0.222223 0.444447 0.416667 C
0.333333 0.000000 0.916670 C
0.000000 0.333333 0.916670 C
0.666667 0.666667 0.916670 C
0.000000 0.333333 0.250003 C
0.666667 0.666667 0.250003 C
0.333333 0.000000 0.250003 C
0.666667 0.666667 0.583337 C
0.333333 0.000000 0.583337 C
0.000000 0.333333 0.583337 C
0.333333 0.333333 0.916670 C
0.666667 0.000000 0.916670 C
0.000000 0.666667 0.916670 C
0.000000 0.666667 0.250003 C
0.333333 0.333333 0.250003 C
0.666667 0.000000 0.250003 C
0.666667 0.000000 0.583337 C
0.000000 0.666667 0.583337 C
0.333333 0.333333 0.583337 C
0.333333 0.000000 0.083330 C
0.000000 0.333333 0.083330 C
0.666667 0.666667 0.083330 C
0.000000 0.333333 0.416663 C
0.666667 0.666667 0.416663 C
0.333333 0.000000 0.416663 C
0.666667 0.666667 0.749997 C
0.333333 0.000000 0.749997 C
0.000000 0.333333 0.749997 C
0.333333 0.333333 0.083330 C
0.666667 0.000000 0.083330 C
0.000000 0.666667 0.083330 C
0.000000 0.666667 0.416663 C
0.333333 0.333333 0.416663 C
0.666667 0.000000 0.416663 C
0.666667 0.000000 0.749997 C
0.000000 0.666667 0.749997 C
0.333333 0.333333 0.749997 C
0.222220 0.444440 0.000000 C
0.555560 0.777780 0.000000 C
0.222220 0.777780 0.000000 C
0.888887 0.777773 0.333333 C
0.222227 0.111113 0.333333 C
0.888887 0.111113 0.333333 C
0.555553 0.111107 0.666667 C
0.888893 0.444447 0.666667 C
0.555553 0.444447 0.666667 C
0.222220 0.777780 0.833330 C
0.222220 0.444440 0.833330 C
0.555560 0.777780 0.833330 C
0.888887 0.111113 0.166663 C
0.888887 0.777773 0.166663 C
0.222227 0.111113 0.166663 C
0.555553 0.444447 0.499997 C
0.555553 0.111107 0.499997 C
0.888893 0.444447 0.499997 C
0.555560 0.111110 0.000000 C
0.888890 0.444450 0.000000 C
0.555550 0.444440 0.000000 C
0.222227 0.444443 0.333333 C
0.555557 0.777783 0.333333 C
0.222217 0.777773 0.333333 C
0.888893 0.777777 0.666667 C
0.222223 0.111117 0.666667 C
0.888883 0.111107 0.666667 C
0.888890 0.777780 0.000000 C
0.222220 0.111110 0.000000 C
0.888890 0.111110 0.000000 C
0.555557 0.111113 0.333333 C
0.888887 0.444443 0.333333 C
0.555557 0.444443 0.333333 C
0.222223 0.444447 0.666667 C
0.555553 0.777777 0.666667 C
0.222223 0.777777 0.666667 C
0.222220 0.444440 0.166670 C
0.555560 0.777780 0.166670 C
0.222220 0.777780 0.166670 C
0.888887 0.777773 0.500003 C
0.222227 0.111113 0.500003 C
0.888887 0.111113 0.500003 C
0.555553 0.111107 0.833337 C
0.888893 0.444447 0.833337 C
0.555553 0.444447 0.833337 C
0.222220 0.444440 0.500000 C
0.555560 0.777780 0.500000 C
0.222220 0.777780 0.500000 C
0.888887 0.777773 0.833333 C
0.222227 0.111113 0.833333 C
0.888887 0.111113 0.833333 C
0.555553 0.111107 0.166667 C
0.888893 0.444447 0.166667 C
0.555553 0.444447 0.166667 C
0.444430 0.222220 0.000000 C
0.777780 0.222210 0.000000 C
0.777790 0.555570 0.000000 C
0.111097 0.555553 0.333333 C
0.444447 0.555543 0.333333 C
0.444457 0.888903 0.333333 C
0.777763 0.888887 0.666667 C
0.111113 0.888877 0.666667 C
0.111123 0.222237 0.666667 C
0.444430 0.222220 0.833330 C
0.777780 0.222210 0.833330 C
0.777790 0.555570 0.833330 C
0.111097 0.555553 0.166663 C
0.444447 0.555543 0.166663 C
0.444457 0.888903 0.166663 C
0.777763 0.888887 0.499997 C
0.111113 0.888877 0.499997 C
0.111123 0.222237 0.499997 C
0.777770 0.888880 0.000000 C
0.111120 0.888890 0.000000 C
0.111110 0.222230 0.000000 C
0.444437 0.222213 0.333333 C
0.777787 0.222223 0.333333 C
0.777777 0.555563 0.333333 C
0.111103 0.555547 0.666667 C
0.444453 0.555557 0.666667 C
0.444443 0.888897 0.666667 C
0.111100 0.555550 0.000000 C
0.444450 0.555550 0.000000 C
0.444450 0.888900 0.000000 C
0.777767 0.888883 0.333333 C
0.111117 0.888883 0.333333 C
0.111117 0.222233 0.333333 C
0.444433 0.222217 0.666667 C
0.777783 0.222217 0.666667 C
0.777783 0.555567 0.666667 C
0.444430 0.222220 0.166670 C
0.777780 0.222210 0.166670 C
0.777790 0.555570 0.166670 C
0.111097 0.555553 0.500003 C
0.444447 0.555543 0.500003 C
0.444457 0.888903 0.500003 C
0.777763 0.888887 0.833337 C
0.111113 0.888877 0.833337 C
0.111123 0.222237 0.833337 C
0.444430 0.222220 0.500000 C
0.777780 0.222210 0.500000 C
0.777790 0.555570 0.500000 C
0.111097 0.555553 0.833333 C
0.444447 0.555543 0.833333 C
0.444457 0.888903 0.833333 C
0.777763 0.888887 0.166667 C
0.111113 0.888877 0.166667 C
0.111123 0.222237 0.166667 C
0.000000 0.000000 0.916670 C
0.666667 0.333333 0.250003 C
0.333333 0.666667 0.583337 C
0.333333 0.666667 0.916670 C
0.000000 0.000000 0.250003 C
0.666667 0.333333 0.583337 C
0.666667 0.333333 0.916670 C
0.333333 0.666667 0.250003 C
0.000000 0.000000 0.583337 C
0.000000 0.000000 0.083330 C
0.666667 0.333333 0.416663 C
0.333333 0.666667 0.749997 C
0.000000 0.000000 0.416670 C
0.666667 0.333333 0.750003 C
0.333333 0.666667 0.083337 C
0.000000 0.000000 0.750000 C
0.666667 0.333333 0.083333 C
0.333333 0.666667 0.416667 C
