Li21 Co42 O84
1.0
2.780000 0.000000 0.000000
-1.390000 2.407551 0.000000
0.000000 0.000000 181.650009
Li Co O
   15  42  84
direct
0.000000 0.000000 0.428570 Li
0.000000 0.000000 0.571430 Li
0.666667 0.333333 0.761903 Li
0.666667 0.333333 0.904763 Li
0.333333 0.666667 0.095237 Li
0.333333 0.666667 0.238097 Li
0.666670 0.333330 0.476190 Li
0.333330 0.666670 0.523810 Li
0.333337 0.666663 0.809523 Li
0.999997 0.000003 0.857143 Li
0.000003 0.999997 0.142857 Li
0.666663 0.333337 0.190477 Li
0.000000 0.000000 0.000000 Li
0.666667 0.333333 0.333333 Li
0.333333 0.666667 0.666667 Li
0.000000 0.000000 0.488570 Co
0.000000 0.000000 0.511430 Co
0.666667 0.333333 0.821903 Co
0.666667 0.333333 0.844763 Co
0.333333 0.666667 0.155237 Co
0.333333 0.666667 0.178097 Co
0.000000 0.000000 0.368570 Co
0.000000 0.000000 0.631430 Co
0.666667 0.333333 0.701903 Co
0.666667 0.333333 0.964763 Co
0.333333 0.666667 0.035237 Co
0.333333 0.666667 0.298097 Co
0.666670 0.333330 0.536190 Co
0.333330 0.666670 0.463810 Co
0.333337 0.666663 0.869523 Co
0.999997 0.000003 0.797143 Co
0.000003 0.999997 0.202857 Co
0.666663 0.333337 0.130477 Co
0.666670 0.333330 0.416190 Co
0.333330 0.666670 0.583810 Co
0.333337 0.666663 0.749523 Co
0.999997 0.000003 0.917143 Co
0.000003 0.999997 0.082857 Co
0.666663 0.333337 0.250477 Co
0.000000 0.000000 0.774290 Co
0.000000 0.000000 0.225710 Co
0.666667 0.333333 0.107623 Co
0.666667 0.333333 0.559043 Co
0.333333 0.666667 0.440957 Co
0.333333 0.666667 0.892377 Co
0.000000 0.000000 0.060000 Co
0.000000 0.000000 0.940000 Co
0.666667 0.333333 0.393333 Co
0.666667 0.333333 0.273333 Co
0.333333 0.666667 0.726667 Co
0.333333 0.666667 0.606667 Co
0.000000 0.000000 0.345710 Co
0.000000 0.000000 0.654290 Co
0.666667 0.333333 0.679043 Co
0.666667 0.333333 0.987623 Co
0.333333 0.666667 0.012377 Co
0.333333 0.666667 0.320957 Co
0.000000 0.000000 0.470000 O
0.000000 0.000000 0.530000 O
0.666667 0.333333 0.803333 O
0.666667 0.333333 0.863333 O
0.333333 0.666667 0.136667 O
0.333333 0.666667 0.196667 O
0.000000 0.000000 0.387140 O
0.000000 0.000000 0.612860 O
0.666667 0.333333 0.720473 O
0.666667 0.333333 0.946193 O
0.333333 0.666667 0.053807 O
0.333333 0.666667 0.279527 O
0.666670 0.333330 0.517620 O
0.333330 0.666670 0.482380 O
0.333337 0.666663 0.850953 O
0.999997 0.000003 0.815713 O
0.000003 0.999997 0.184287 O
0.666663 0.333337 0.149047 O
0.666670 0.333330 0.434760 O
0.333330 0.666670 0.565240 O
0.333337 0.666663 0.768093 O
0.999997 0.000003 0.898573 O
0.000003 0.999997 0.101427 O
0.666663 0.333337 0.231907 O
0.000000 0.000000 0.755710 O
0.000000 0.000000 0.244290 O
0.666667 0.333333 0.089043 O
0.666667 0.333333 0.577623 O
0.333333 0.666667 0.422377 O
0.333333 0.666667 0.910957 O
0.000000 0.000000 0.041430 O
0.000000 0.000000 0.958570 O
0.666667 0.333333 0.374763 O
0.666667 0.333333 0.291903 O
0.333333 0.666667 0.708097 O
0.333333 0.666667 0.625237 O
0.000000 0.000000 0.327140 O
0.000000 0.000000 0.672860 O
0.666667 0.333333 0.660473 O
0.666667 0.333333 0.006193 O
0.333333 0.666667 0.993807 O
0.333333 0.666667 0.339527 O
0.000000 0.000000 0.445710 O
0.000000 0.000000 0.554290 O
0.666667 0.333333 0.779043 O
0.666667 0.333333 0.887623 O
0.333333 0.666667 0.112377 O
0.333333 0.666667 0.220957 O
0.000000 0.000000 0.411430 O
0.000000 0.000000 0.588570 O
0.666667 0.333333 0.744763 O
0.666667 0.333333 0.921903 O
0.333333 0.666667 0.078097 O
0.333333 0.666667 0.255237 O
0.666670 0.333330 0.493330 O
0.333330 0.666670 0.506670 O
0.333337 0.666663 0.826663 O
0.999997 0.000003 0.840003 O
0.000003 0.999997 0.159997 O
0.666663 0.333337 0.173337 O
0.666670 0.333330 0.459050 O
0.333330 0.666670 0.540950 O
0.333337 0.666663 0.792383 O
0.999997 0.000003 0.874283 O
0.000003 0.999997 0.125717 O
0.666663 0.333337 0.207617 O
0.000000 0.000000 0.731430 O
0.000000 0.000000 0.268570 O
0.666667 0.333333 0.064763 O
0.666667 0.333333 0.601903 O
0.333333 0.666667 0.398097 O
0.333333 0.666667 0.935237 O
0.000000 0.000000 0.017140 O
0.000000 0.000000 0.982860 O
0.666667 0.333333 0.350473 O
0.666667 0.333333 0.316193 O
0.333333 0.666667 0.683807 O
0.333333 0.666667 0.649527 O
0.000000 0.000000 0.302860 O
0.000000 0.000000 0.697140 O
0.666667 0.333333 0.636193 O
0.666667 0.333333 0.030473 O
0.333333 0.666667 0.969527 O
0.333333 0.666667 0.363807 O
