Li8 C48
1.0
4.323294 0.000000 0.000000
-2.161647 3.744082 0.000000
0.000000 0.000000 29.962942
Li C
   4  48
direct
0.000000 0.000000 0.562500 Li
0.000000 0.000000 0.062500 Li
0.000000 0.000000 0.437500 Li
0.000000 0.000000 0.937500 Li
0.000000 0.333550 0.625000 C
0.666450 0.666450 0.625000 C
0.333550 0.000000 0.625000 C
0.000000 0.666450 0.125000 C
0.333550 0.333550 0.125000 C
0.666450 0.000000 0.125000 C
0.333550 0.000000 0.375000 C
0.666450 0.666450 0.375000 C
0.000000 0.333550 0.375000 C
0.666450 0.000000 0.875000 C
0.333550 0.333550 0.875000 C
0.000000 0.666450 0.875000 C
0.000000 0.666450 0.625000 C
0.333550 0.333550 0.625000 C
0.666450 0.000000 0.625000 C
0.000000 0.333550 0.125000 C
0.666450 0.666450 0.125000 C
0.333550 0.000000 0.125000 C
0.666450 0.000000 0.375000 C
0.333550 0.333550 0.375000 C
0.000000 0.666450 0.375000 C
0.333550 0.000000 0.875000 C
0.666450 0.666450 0.875000 C
0.000000 0.333550 0.875000 C
0.333550 0.000000 0.500000 C
0.000000 0.333550 0.500000 C
0.666450 0.666450 0.500000 C
0.666450 0.000000 0.000000 C
0.000000 0.666450 0.000000 C
0.333550 0.333550 0.000000 C
0.666450 0.000000 0.500000 C
0.000000 0.666450 0.500000 C
0.333550 0.333550 0.500000 C
0.333550 0.000000 0.000000 C
0.000000 0.333550 0.000000 C
0.666450 0.666450 0.000000 C
0.000000 0.333550 0.750000 C
0.666450 0.666450 0.750000 C
0.333550 0.000000 0.750000 C
0.000000 0.666450 0.250000 C
0.333550 0.333550 0.250000 C
0.666450 0.000000 0.250000 C
0.333550 0.000000 0.250000 C
0.666450 0.666450 0.250000 C
0.000000 0.333550 0.250000 C
0.666450 0.000000 0.750000 C
0.333550 0.333550 0.750000 C
0.000000 0.666450 0.750000 C
