Li16 C96
1.0
8.599000 0.000000 0.000000
-4.299500 7.446952 0.000000
0.000000 0.000000 14.400000
Li C
   6  96
direct
0.166670 0.833330 0.131940 Li
0.166670 0.333340 0.131940 Li
0.666660 0.833330 0.131940 Li
0.833330 0.166670 0.868060 Li
0.833330 0.666660 0.868060 Li
0.333340 0.166670 0.868060 Li
0.166670 0.666667 0.750000 C
0.333333 0.500003 0.750000 C
0.499997 0.833330 0.750000 C
0.833330 0.500000 0.750000 C
0.500000 0.333330 0.750000 C
0.666670 0.166670 0.750000 C
0.000000 0.333333 0.750000 C
0.666667 0.666667 0.750000 C
0.333333 0.000000 0.750000 C
0.166670 0.166670 0.750000 C
0.833330 0.000000 0.750000 C
0.000000 0.833330 0.750000 C
0.166670 0.666667 0.250000 C
0.333333 0.500003 0.250000 C
0.499997 0.833330 0.250000 C
0.666667 0.666667 0.250000 C
0.333333 0.000000 0.250000 C
0.000000 0.333333 0.250000 C
0.166670 0.166670 0.250000 C
0.833330 0.000000 0.250000 C
0.000000 0.833330 0.250000 C
0.666667 0.166670 0.250000 C
0.833330 0.499997 0.250000 C
0.500003 0.333333 0.250000 C
0.333333 0.666667 0.750000 C
0.833340 0.666667 0.750000 C
0.333333 0.166673 0.750000 C
0.833327 0.166660 0.750000 C
0.166670 0.833340 0.750000 C
0.166660 0.333330 0.750000 C
0.666670 0.833330 0.750000 C
0.666667 0.333333 0.750000 C
0.333333 0.666667 0.250000 C
0.833340 0.666667 0.250000 C
0.333333 0.166673 0.250000 C
0.833327 0.166660 0.250000 C
0.166670 0.833340 0.250000 C
0.166660 0.333330 0.250000 C
0.666670 0.833330 0.250000 C
0.666667 0.333333 0.250000 C
0.000000 0.833330 0.000000 C
0.166670 0.166670 0.000000 C
0.833330 0.000000 0.000000 C
0.666667 0.166670 0.000000 C
0.833330 0.499997 0.000000 C
0.500003 0.333333 0.000000 C
0.333333 0.500000 0.000000 C
0.500000 0.833333 0.000000 C
0.166667 0.666667 0.000000 C
0.333333 0.500000 0.500000 C
0.500000 0.833333 0.500000 C
0.166667 0.666667 0.500000 C
0.666667 0.166670 0.500000 C
0.833330 0.499997 0.500000 C
0.500003 0.333333 0.500000 C
0.000000 0.833330 0.500000 C
0.166670 0.166670 0.500000 C
0.833330 0.000000 0.500000 C
0.000000 0.333333 0.000000 C
0.666667 0.666667 0.000000 C
0.333333 0.000000 0.000000 C
0.333333 0.000000 0.500000 C
0.000000 0.333333 0.500000 C
0.666667 0.666667 0.500000 C
0.333333 0.833320 0.000000 C
0.166680 0.500013 0.000000 C
0.499987 0.666667 0.000000 C
0.666667 0.500000 0.000000 C
0.500000 0.166667 0.000000 C
0.833333 0.333333 0.000000 C
0.000000 0.166670 0.000000 C
0.833330 0.833330 0.000000 C
0.166670 0.000000 0.000000 C
0.333333 0.833320 0.500000 C
0.166680 0.500013 0.500000 C
0.499987 0.666667 0.500000 C
0.000000 0.166670 0.500000 C
0.833330 0.833330 0.500000 C
0.166670 0.000000 0.500000 C
0.666667 0.500000 0.500000 C
0.500000 0.166667 0.500000 C
0.833333 0.333333 0.500000 C
0.333333 0.333333 0.000000 C
0.666667 0.000000 0.000000 C
0.000000 0.666667 0.000000 C
0.333333 0.333333 0.500000 C
0.666667 0.000000 0.500000 C
0.000000 0.666667 0.500000 C
0.000000 0.500000 0.750000 C
0.500000 0.500000 0.750000 C
0.500000 0.000000 0.750000 C
0.000000 0.000000 0.750000 C
0.000000 0.500000 0.250000 C
0.500000 0.500000 0.250000 C
0.500000 0.000000 0.250000 C
0.000000 0.000000 0.250000 C
