Li12 Co24 O48
1.0
5.560000 0.000000 0.000000
-2.780000 4.815101 0.000000
0.000000 0.000000 25.950001
Li Co O
12 24 48
direct
0.500000 0.500000 0.000000 Li
0.500000 0.000000 0.000000 Li
0.000000 0.500000 0.000000 Li
0.166667 0.833333 0.333333 Li
0.166667 0.333333 0.333333 Li
0.666667 0.833333 0.333333 Li
0.833333 0.166667 0.666667 Li
0.833333 0.666667 0.666667 Li
0.333333 0.166667 0.666667 Li
0.333330 0.666670 0.666670 Li
0.666670 0.333330 0.333330 Li
0.999997 0.000003 0.000003 Li
0.500000 0.500000 0.420000 Co
0.500000 0.000000 0.420000 Co
0.000000 0.500000 0.420000 Co
0.500000 0.500000 0.580000 Co
0.000000 0.500000 0.580000 Co
0.500000 0.000000 0.580000 Co
0.166667 0.833333 0.753333 Co
0.166667 0.333333 0.753333 Co
0.666667 0.833333 0.753333 Co
0.166667 0.833333 0.913333 Co
0.666667 0.833333 0.913333 Co
0.166667 0.333333 0.913333 Co
0.833333 0.166667 0.086667 Co
0.833333 0.666667 0.086667 Co
0.333333 0.166667 0.086667 Co
0.833333 0.166667 0.246667 Co
0.333333 0.166667 0.246667 Co
0.833333 0.666667 0.246667 Co
0.333330 0.666670 0.086670 Co
0.666670 0.333330 0.913330 Co
0.999997 0.000003 0.420003 Co
0.333337 0.666663 0.246663 Co
0.666663 0.333337 0.753337 Co
0.000003 0.999997 0.579997 Co
0.500000 0.500000 0.290000 O
0.500000 0.000000 0.290000 O
0.000000 0.500000 0.290000 O
0.500000 0.500000 0.710000 O
0.000000 0.500000 0.710000 O
0.500000 0.000000 0.710000 O
0.166667 0.833333 0.623333 O
0.166667 0.333333 0.623333 O
0.666667 0.833333 0.623333 O
0.166667 0.833333 0.043333 O
0.666667 0.833333 0.043333 O
0.166667 0.333333 0.043333 O
0.833333 0.166667 0.956667 O
0.833333 0.666667 0.956667 O
0.333333 0.166667 0.956667 O
0.833333 0.166667 0.376667 O
0.333333 0.166667 0.376667 O
0.833333 0.666667 0.376667 O
0.333330 0.666670 0.956670 O
0.666670 0.333330 0.043330 O
0.999997 0.000003 0.290003 O
0.333337 0.666663 0.376663 O
0.666663 0.333337 0.623337 O
0.000003 0.999997 0.709997 O
0.500000 0.500000 0.120000 O
0.500000 0.000000 0.120000 O
0.000000 0.500000 0.120000 O
0.500000 0.500000 0.880000 O
0.000000 0.500000 0.880000 O
0.500000 0.000000 0.880000 O
0.166667 0.833333 0.453333 O
0.166667 0.333333 0.453333 O
0.666667 0.833333 0.453333 O
0.166667 0.833333 0.213333 O
0.666667 0.833333 0.213333 O
0.166667 0.333333 0.213333 O
0.833333 0.166667 0.786667 O
0.833333 0.666667 0.786667 O
0.333333 0.166667 0.786667 O
0.833333 0.166667 0.546667 O
0.333333 0.166667 0.546667 O
0.833333 0.666667 0.546667 O
0.333330 0.666670 0.786670 O
0.666670 0.333330 0.213330 O
0.999997 0.000003 0.120003 O
0.333337 0.666663 0.546663 O
0.666663 0.333337 0.453337 O
0.000003 0.999997 0.879997 O
