Li12 Co24 O48
1.0
2.780000 0.000000 0.000000
-1.390000 2.407551 0.000000
0.000000 0.000000 103.800003
Li Co O
12 24 48
direct
0.000000 0.000000 0.875000 Li
0.000000 0.000000 0.375000 Li
0.666667 0.333333 0.208333 Li
0.666667 0.333333 0.708333 Li
0.333333 0.666667 0.541667 Li
0.333333 0.666667 0.041667 Li
0.666670 0.333330 0.958330 Li
0.666670 0.333330 0.458330 Li
0.333337 0.666663 0.291663 Li
0.333337 0.666663 0.791663 Li
0.000003 0.999997 0.624997 Li
0.000003 0.999997 0.124997 Li
0.000000 0.000000 0.980000 Co
0.000000 0.000000 0.480000 Co
0.666667 0.333333 0.313333 Co
0.666667 0.333333 0.813333 Co
0.333333 0.666667 0.646667 Co
0.333333 0.666667 0.146667 Co
0.000000 0.000000 0.770000 Co
0.000000 0.000000 0.270000 Co
0.666667 0.333333 0.103333 Co
0.666667 0.333333 0.603333 Co
0.333333 0.666667 0.436667 Co
0.333333 0.666667 0.936667 Co
0.666670 0.333330 0.063330 Co
0.666670 0.333330 0.563330 Co
0.333337 0.666663 0.396663 Co
0.333337 0.666663 0.896663 Co
0.000003 0.999997 0.729997 Co
0.000003 0.999997 0.229997 Co
0.666670 0.333330 0.853330 Co
0.666670 0.333330 0.353330 Co
0.333337 0.666663 0.186663 Co
0.333337 0.666663 0.686663 Co
0.000003 0.999997 0.519997 Co
0.000003 0.999997 0.019997 Co
0.000000 0.000000 0.947500 O
0.000000 0.000000 0.447500 O
0.666667 0.333333 0.280833 O
0.666667 0.333333 0.780833 O
0.333333 0.666667 0.614167 O
0.333333 0.666667 0.114167 O
0.000000 0.000000 0.802500 O
0.000000 0.000000 0.302500 O
0.666667 0.333333 0.135833 O
0.666667 0.333333 0.635833 O
0.333333 0.666667 0.469167 O
0.333333 0.666667 0.969167 O
0.666670 0.333330 0.030830 O
0.666670 0.333330 0.530830 O
0.333337 0.666663 0.364163 O
0.333337 0.666663 0.864163 O
0.000003 0.999997 0.697497 O
0.000003 0.999997 0.197497 O
0.666670 0.333330 0.885830 O
0.666670 0.333330 0.385830 O
0.333337 0.666663 0.219163 O
0.333337 0.666663 0.719163 O
0.000003 0.999997 0.552497 O
0.000003 0.999997 0.052497 O
0.000000 0.000000 0.905000 O
0.000000 0.000000 0.405000 O
0.666667 0.333333 0.238333 O
0.666667 0.333333 0.738333 O
0.333333 0.666667 0.571667 O
0.333333 0.666667 0.071667 O
0.000000 0.000000 0.845000 O
0.000000 0.000000 0.345000 O
0.666667 0.333333 0.178333 O
0.666667 0.333333 0.678333 O
0.333333 0.666667 0.511667 O
0.333333 0.666667 0.011667 O
0.666670 0.333330 0.988330 O
0.666670 0.333330 0.488330 O
0.333337 0.666663 0.321663 O
0.333337 0.666663 0.821663 O
0.000003 0.999997 0.654997 O
0.000003 0.999997 0.154997 O
0.666670 0.333330 0.928330 O
0.666670 0.333330 0.428330 O
0.333337 0.666663 0.261663 O
0.333337 0.666663 0.761663 O
0.000003 0.999997 0.594997 O
0.000003 0.999997 0.094997 O
