Li6 Co12 O24
1.0
2.780000 0.000000 0.000000
-1.390000 2.407551 0.000000
0.000000 0.000000 51.900002
Li Co O
6 12 24
direct
0.000000 0.000000 0.750000 Li
0.666667 0.333333 0.083333 Li
0.333333 0.666667 0.416667 Li
0.333330 0.666670 0.916670 Li
0.999997 0.000003 0.250003 Li
0.666663 0.333337 0.583337 Li
0.000000 0.000000 0.960000 Co
0.666667 0.333333 0.293333 Co
0.333333 0.666667 0.626667 Co
0.000000 0.000000 0.540000 Co
0.666667 0.333333 0.873333 Co
0.333333 0.666667 0.206667 Co
0.333330 0.666670 0.126670 Co
0.999997 0.000003 0.460003 Co
0.666663 0.333337 0.793337 Co
0.333330 0.666670 0.706670 Co
0.999997 0.000003 0.040003 Co
0.666663 0.333337 0.373337 Co
0.000000 0.000000 0.895000 O
0.666667 0.333333 0.228333 O
0.333333 0.666667 0.561667 O
0.000000 0.000000 0.605000 O
0.666667 0.333333 0.938333 O
0.333333 0.666667 0.271667 O
0.333330 0.666670 0.061670 O
0.999997 0.000003 0.395003 O
0.666663 0.333337 0.728337 O
0.333330 0.666670 0.771670 O
0.999997 0.000003 0.105003 O
0.666663 0.333337 0.438337 O
0.000000 0.000000 0.810000 O
0.666667 0.333333 0.143333 O
0.333333 0.666667 0.476667 O
0.000000 0.000000 0.690000 O
0.666667 0.333333 0.023333 O
0.333333 0.666667 0.356667 O
0.333330 0.666670 0.976670 O
0.999997 0.000003 0.310003 O
0.666663 0.333337 0.643337 O
0.333330 0.666670 0.856670 O
0.999997 0.000003 0.190003 O
0.666663 0.333337 0.523337 O
