Li12 Co24 O48
1.0
2.780000 0.000000 0.000000
-1.390000 2.407551 0.000000
0.000000 0.000000 103.800003
Li Co O
12 24 48
direct
0.000000 0.000000 0.750000 Li
0.000000 0.000000 0.250000 Li
0.666667 0.333333 0.083333 Li
0.666667 0.333333 0.583333 Li
0.333333 0.666667 0.416667 Li
0.333333 0.666667 0.916667 Li
0.666670 0.333330 0.833330 Li
0.333330 0.666670 0.166670 Li
0.999997 0.000003 0.500003 Li
0.000000 0.000000 0.000000 Li
0.666667 0.333333 0.333333 Li
0.333333 0.666667 0.666667 Li
0.000000 0.000000 0.855000 Co
0.000000 0.000000 0.145000 Co
0.666667 0.333333 0.188333 Co
0.666667 0.333333 0.478333 Co
0.333333 0.666667 0.521667 Co
0.333333 0.666667 0.811667 Co
0.000000 0.000000 0.645000 Co
0.000000 0.000000 0.355000 Co
0.666667 0.333333 0.978333 Co
0.666667 0.333333 0.688333 Co
0.333333 0.666667 0.311667 Co
0.333333 0.666667 0.021667 Co
0.666670 0.333330 0.938330 Co
0.333330 0.666670 0.061670 Co
0.333337 0.666663 0.271663 Co
0.999997 0.000003 0.395003 Co
0.000003 0.999997 0.604997 Co
0.666663 0.333337 0.728337 Co
0.000000 0.000000 0.105000 Co
0.000000 0.000000 0.895000 Co
0.666667 0.333333 0.438333 Co
0.666667 0.333333 0.228333 Co
0.333333 0.666667 0.771667 Co
0.333333 0.666667 0.561667 Co
0.000000 0.000000 0.822500 O
0.000000 0.000000 0.177500 O
0.666667 0.333333 0.155833 O
0.666667 0.333333 0.510833 O
0.333333 0.666667 0.489167 O
0.333333 0.666667 0.844167 O
0.000000 0.000000 0.677500 O
0.000000 0.000000 0.322500 O
0.666667 0.333333 0.010833 O
0.666667 0.333333 0.655833 O
0.333333 0.666667 0.344167 O
0.333333 0.666667 0.989167 O
0.666670 0.333330 0.905830 O
0.333330 0.666670 0.094170 O
0.333337 0.666663 0.239163 O
0.999997 0.000003 0.427503 O
0.000003 0.999997 0.572497 O
0.666663 0.333337 0.760837 O
0.000000 0.000000 0.072500 O
0.000000 0.000000 0.927500 O
0.666667 0.333333 0.405833 O
0.666667 0.333333 0.260833 O
0.333333 0.666667 0.739167 O
0.333333 0.666667 0.594167 O
0.000000 0.000000 0.780000 O
0.000000 0.000000 0.220000 O
0.666667 0.333333 0.113333 O
0.666667 0.333333 0.553333 O
0.333333 0.666667 0.446667 O
0.333333 0.666667 0.886667 O
0.000000 0.000000 0.720000 O
0.000000 0.000000 0.280000 O
0.666667 0.333333 0.053333 O
0.666667 0.333333 0.613333 O
0.333333 0.666667 0.386667 O
0.333333 0.666667 0.946667 O
0.666670 0.333330 0.863330 O
0.333330 0.666670 0.136670 O
0.333337 0.666663 0.196663 O
0.999997 0.000003 0.470003 O
0.000003 0.999997 0.529997 O
0.666663 0.333337 0.803337 O
0.000000 0.000000 0.030000 O
0.000000 0.000000 0.970000 O
0.666667 0.333333 0.363333 O
0.666667 0.333333 0.303333 O
0.333333 0.666667 0.696667 O
0.333333 0.666667 0.636667 O
