Li12 Co24 O48
1.0
2.780000 0.000000 0.000000
-1.390000 2.407551 0.000000
0.000000 0.000000 103.800003
Li Co O
12 24 48
direct
0.000000 0.000000 0.625000 Li
0.000000 0.000000 0.375000 Li
0.666667 0.333333 0.958333 Li
0.666667 0.333333 0.708333 Li
0.333333 0.666667 0.291667 Li
0.333333 0.666667 0.041667 Li
0.333330 0.666670 0.791670 Li
0.666670 0.333330 0.208330 Li
0.999997 0.000003 0.125003 Li
0.333337 0.666663 0.541663 Li
0.666663 0.333337 0.458337 Li
0.000003 0.999997 0.874997 Li
0.000000 0.000000 0.730000 Co
0.000000 0.000000 0.270000 Co
0.666667 0.333333 0.063333 Co
0.666667 0.333333 0.603333 Co
0.333333 0.666667 0.396667 Co
0.333333 0.666667 0.936667 Co
0.000000 0.000000 0.520000 Co
0.000000 0.000000 0.480000 Co
0.666667 0.333333 0.853333 Co
0.666667 0.333333 0.813333 Co
0.333333 0.666667 0.186667 Co
0.333333 0.666667 0.146667 Co
0.333330 0.666670 0.896670 Co
0.666670 0.333330 0.103330 Co
0.999997 0.000003 0.230003 Co
0.333337 0.666663 0.436663 Co
0.666663 0.333337 0.563337 Co
0.000003 0.999997 0.769997 Co
0.333330 0.666670 0.686670 Co
0.666670 0.333330 0.313330 Co
0.999997 0.000003 0.020003 Co
0.333337 0.666663 0.646663 Co
0.666663 0.333337 0.353337 Co
0.000003 0.999997 0.979997 Co
0.000000 0.000000 0.697500 O
0.000000 0.000000 0.302500 O
0.666667 0.333333 0.030833 O
0.666667 0.333333 0.635833 O
0.333333 0.666667 0.364167 O
0.333333 0.666667 0.969167 O
0.000000 0.000000 0.552500 O
0.000000 0.000000 0.447500 O
0.666667 0.333333 0.885833 O
0.666667 0.333333 0.780833 O
0.333333 0.666667 0.219167 O
0.333333 0.666667 0.114167 O
0.333330 0.666670 0.864170 O
0.666670 0.333330 0.135830 O
0.999997 0.000003 0.197503 O
0.333337 0.666663 0.469163 O
0.666663 0.333337 0.530837 O
0.000003 0.999997 0.802497 O
0.333330 0.666670 0.719170 O
0.666670 0.333330 0.280830 O
0.999997 0.000003 0.052503 O
0.333337 0.666663 0.614163 O
0.666663 0.333337 0.385837 O
0.000003 0.999997 0.947497 O
0.000000 0.000000 0.655000 O
0.000000 0.000000 0.345000 O
0.666667 0.333333 0.988333 O
0.666667 0.333333 0.678333 O
0.333333 0.666667 0.321667 O
0.333333 0.666667 0.011667 O
0.000000 0.000000 0.595000 O
0.000000 0.000000 0.405000 O
0.666667 0.333333 0.928333 O
0.666667 0.333333 0.738333 O
0.333333 0.666667 0.261667 O
0.333333 0.666667 0.071667 O
0.333330 0.666670 0.821670 O
0.666670 0.333330 0.178330 O
0.999997 0.000003 0.155003 O
0.333337 0.666663 0.511663 O
0.666663 0.333337 0.488337 O
0.000003 0.999997 0.844997 O
0.333330 0.666670 0.761670 O
0.666670 0.333330 0.238330 O
0.999997 0.000003 0.095003 O
0.333337 0.666663 0.571663 O
0.666663 0.333337 0.428337 O
0.000003 0.999997 0.904997 O
