Li24 Co24 O48
1.0
5.631200 0.000000 0.000000
-2.815600 4.876762 0.000000
0.000000 0.000000 28.108400
Li Co O
   6  24  48
direct
0.666670 0.333330 0.333330 Li
0.333330 0.666670 0.666670 Li
0.999997 0.000003 0.000003 Li
0.000000 0.000000 0.500000 Li
0.666667 0.333333 0.833333 Li
0.333333 0.666667 0.166667 Li
0.000000 0.500000 0.250000 Co
0.500000 0.500000 0.250000 Co
0.500000 0.000000 0.250000 Co
0.500000 0.000000 0.750000 Co
0.500000 0.500000 0.750000 Co
0.000000 0.500000 0.750000 Co
0.666667 0.833333 0.583333 Co
0.166667 0.833333 0.583333 Co
0.166667 0.333333 0.583333 Co
0.166667 0.333333 0.083333 Co
0.166667 0.833333 0.083333 Co
0.666667 0.833333 0.083333 Co
0.333333 0.166667 0.916667 Co
0.833333 0.166667 0.916667 Co
0.833333 0.666667 0.916667 Co
0.833333 0.666667 0.416667 Co
0.833333 0.166667 0.416667 Co
0.333333 0.166667 0.416667 Co
0.666670 0.333330 0.583330 Co
0.333330 0.666670 0.416670 Co
0.333337 0.666663 0.916663 Co
0.999997 0.000003 0.750003 Co
0.000003 0.999997 0.249997 Co
0.666663 0.333337 0.083337 Co
0.000000 0.500000 0.119840 O
0.500000 0.500000 0.119840 O
0.500000 0.000000 0.119840 O
0.500000 0.000000 0.880160 O
0.500000 0.500000 0.880160 O
0.000000 0.500000 0.880160 O
0.666667 0.833333 0.453173 O
0.166667 0.833333 0.453173 O
0.166667 0.333333 0.453173 O
0.166667 0.333333 0.213493 O
0.166667 0.833333 0.213493 O
0.666667 0.833333 0.213493 O
0.333333 0.166667 0.786507 O
0.833333 0.166667 0.786507 O
0.833333 0.666667 0.786507 O
0.833333 0.666667 0.546827 O
0.833333 0.166667 0.546827 O
0.333333 0.166667 0.546827 O
0.833330 0.666670 0.286510 O
0.333330 0.166660 0.286510 O
0.833340 0.166670 0.286510 O
0.666670 0.833330 0.713490 O
0.166660 0.333330 0.713490 O
0.166670 0.833340 0.713490 O
0.499997 0.000003 0.619843 O
0.999997 0.499993 0.619843 O
0.500007 0.500003 0.619843 O
0.333337 0.166663 0.046823 O
0.833327 0.666663 0.046823 O
0.833337 0.166673 0.046823 O
0.166663 0.333337 0.953177 O
0.666663 0.833327 0.953177 O
0.166673 0.833337 0.953177 O
0.000003 0.499997 0.380157 O
0.499993 0.999997 0.380157 O
0.500003 0.500007 0.380157 O
0.666670 0.333330 0.453170 O
0.333330 0.666670 0.546830 O
0.333337 0.666663 0.786503 O
0.999997 0.000003 0.880163 O
0.000003 0.999997 0.119837 O
0.666663 0.333337 0.213497 O
0.000000 0.000000 0.619840 O
0.000000 0.000000 0.380160 O
0.666667 0.333333 0.953173 O
0.666667 0.333333 0.713493 O
0.333333 0.666667 0.286507 O
0.333333 0.666667 0.046827 O
