Li12 C72
1.0
7.446952 0.000000 0.000000
-3.723476 6.449250 0.000000
0.000000 0.000000 14.400000
Li C
   6  72
direct
0.000000 0.000000 0.381940 Li
0.333333 0.000000 0.618060 Li
0.000000 0.333333 0.618060 Li
0.666667 0.666667 0.618060 Li
0.000000 0.000000 0.881940 Li
0.333333 0.666667 0.881940 Li
0.111120 0.888890 0.000000 C
0.111110 0.222230 0.000000 C
0.777770 0.888880 0.000000 C
0.777780 0.555560 0.000000 C
0.444440 0.222220 0.000000 C
0.777780 0.222220 0.000000 C
0.111110 0.555550 0.000000 C
0.444450 0.555560 0.000000 C
0.444440 0.888890 0.000000 C
0.111120 0.888890 0.500000 C
0.111110 0.222230 0.500000 C
0.777770 0.888880 0.500000 C
0.777780 0.222220 0.500000 C
0.777780 0.555560 0.500000 C
0.444440 0.222220 0.500000 C
0.444450 0.555560 0.500000 C
0.444440 0.888890 0.500000 C
0.111110 0.555550 0.500000 C
0.333333 0.000000 0.000000 C
0.000000 0.333333 0.000000 C
0.666667 0.666667 0.000000 C
0.000000 0.000000 0.000000 C
0.333333 0.666667 0.000000 C
0.666667 0.333333 0.000000 C
0.333333 0.000000 0.500000 C
0.000000 0.333333 0.500000 C
0.666667 0.666667 0.500000 C
0.000000 0.000000 0.500000 C
0.333333 0.666667 0.500000 C
0.666667 0.333333 0.500000 C
0.777780 0.888890 0.250000 C
0.111110 0.888890 0.250000 C
0.111110 0.222220 0.250000 C
0.777780 0.222220 0.250000 C
0.777780 0.555560 0.250000 C
0.444440 0.222220 0.250000 C
0.444440 0.888890 0.250000 C
0.111110 0.555550 0.250000 C
0.444450 0.555560 0.250000 C
0.444440 0.888890 0.750000 C
0.111110 0.555550 0.750000 C
0.444450 0.555560 0.750000 C
0.777780 0.222220 0.750000 C
0.777780 0.555560 0.750000 C
0.444440 0.222220 0.750000 C
0.777780 0.888890 0.750000 C
0.111110 0.888890 0.750000 C
0.111110 0.222220 0.750000 C
0.222220 0.111100 0.250000 C
0.888900 0.111120 0.250000 C
0.888880 0.777780 0.250000 C
0.555570 0.444450 0.250000 C
0.555550 0.111120 0.250000 C
0.888880 0.444430 0.250000 C
0.222220 0.444450 0.250000 C
0.555550 0.777770 0.250000 C
0.222230 0.777780 0.250000 C
0.222220 0.111100 0.750000 C
0.888900 0.111120 0.750000 C
0.888880 0.777780 0.750000 C
0.222220 0.444450 0.750000 C
0.555550 0.777770 0.750000 C
0.222230 0.777780 0.750000 C
0.555570 0.444450 0.750000 C
0.555550 0.111120 0.750000 C
0.888880 0.444430 0.750000 C
0.000000 0.666667 0.000000 C
0.333333 0.333333 0.000000 C
0.666667 0.000000 0.000000 C
0.000000 0.666667 0.500000 C
0.333333 0.333333 0.500000 C
0.666667 0.000000 0.500000 C
