Li4 Co4 O8
1.0
4.804981 0.000000 27.694662
-0.000000 2.815600 0.000000
0.000000 0.000000 9.509439
Li Co O
   2  4  8
direct
0.000000 0.000000 0.000000 Li
0.500000 0.000000 0.000000 Li
0.250000 0.000000 0.000000 Co
0.750000 0.000000 0.000000 Co
0.750000 0.500000 0.500000 Co
0.250000 0.500000 0.500000 Co
0.119840 0.000000 0.000000 O
0.880160 0.000000 0.000000 O
0.619840 0.000000 0.000000 O
0.380160 0.000000 0.000000 O
0.619840 0.500000 0.500000 O
0.380160 0.500000 0.500000 O
0.119840 0.500000 0.500000 O
0.880160 0.500000 0.500000 O
