Li54 C324
1.0
12.898500 0.000000 0.000000
-6.449250 11.170429 0.000000
0.000000 0.000000 21.599998
Li C
   18  324
direct
0.111110 0.222220 0.587960 Li
0.777780 0.888890 0.587960 Li
0.111110 0.888890 0.587960 Li
0.222220 0.111110 0.412040 Li
0.888890 0.777780 0.412040 Li
0.888890 0.111110 0.412040 Li
0.777777 0.555553 0.921293 Li
0.444447 0.222223 0.921293 Li
0.777777 0.222223 0.921293 Li
0.888887 0.444443 0.745373 Li
0.555557 0.111113 0.745373 Li
0.555557 0.444443 0.745373 Li
0.444443 0.888887 0.254627 Li
0.111113 0.555557 0.254627 Li
0.444443 0.555557 0.254627 Li
0.555553 0.777777 0.078707 Li
0.222223 0.444447 0.078707 Li
0.222223 0.777777 0.078707 Li
0.111110 0.111110 0.333333 C
0.888890 0.000000 0.333333 C
0.000000 0.888890 0.333333 C
0.111110 0.111110 0.666667 C
0.000000 0.888890 0.666667 C
0.888890 0.000000 0.666667 C
0.777777 0.444443 0.666667 C
0.555557 0.333333 0.666667 C
0.666667 0.222223 0.666667 C
0.777777 0.444443 0.000000 C
0.666667 0.222223 0.000000 C
0.555557 0.333333 0.000000 C
0.444443 0.777777 0.000000 C
0.222223 0.666667 0.000000 C
0.333333 0.555557 0.000000 C
0.444443 0.777777 0.333333 C
0.333333 0.555557 0.333333 C
0.222223 0.666667 0.333333 C
0.444450 0.111110 0.333333 C
0.888890 0.333340 0.333333 C
0.666660 0.555550 0.333333 C
0.111110 0.444450 0.666667 C
0.333340 0.888890 0.666667 C
0.555550 0.666660 0.666667 C
0.777777 0.777783 0.000000 C
0.000007 0.222223 0.000000 C
0.222217 0.999993 0.000000 C
0.777780 0.111110 0.333333 C
0.888890 0.666670 0.333333 C
0.333330 0.222220 0.333333 C
0.111110 0.777780 0.666667 C
0.666670 0.888890 0.666667 C
0.222220 0.333330 0.666667 C
0.444447 0.444443 0.666667 C
0.555557 0.000003 0.666667 C
0.999997 0.555553 0.666667 C
0.777777 0.111113 0.000000 C
0.333337 0.222223 0.000000 C
0.888887 0.666663 0.000000 C
0.111113 0.777777 0.000000 C
0.222223 0.333337 0.000000 C
0.666663 0.888887 0.000000 C
0.444443 0.444447 0.333333 C
0.000003 0.555557 0.333333 C
0.555553 0.999997 0.333333 C
0.111110 0.444440 0.333333 C
0.555560 0.666670 0.333333 C
0.333330 0.888890 0.333333 C
0.444440 0.111110 0.666667 C
0.666670 0.555560 0.666667 C
0.888890 0.333330 0.666667 C
0.777777 0.777773 0.666667 C
0.222227 0.000003 0.666667 C
0.999997 0.222223 0.666667 C
0.111107 0.444443 0.000000 C
0.333337 0.888893 0.000000 C
0.555557 0.666663 0.000000 C
0.444443 0.111107 0.000000 C
0.888893 0.333337 0.000000 C
0.666663 0.555557 0.000000 C
0.777773 0.777777 0.333333 C
0.000003 0.222227 0.333333 C
0.222223 0.999997 0.333333 C
0.111110 0.777780 0.333333 C
0.222220 0.333330 0.333333 C
0.666670 0.888890 0.333333 C
0.777780 0.111110 0.666667 C
0.333330 0.222220 0.666667 C
0.888890 0.666670 0.666667 C
0.444447 0.444443 0.000000 C
0.999997 0.555553 0.000000 C
0.555557 0.000003 0.000000 C
0.111110 0.111110 0.000000 C
0.888890 0.000000 0.000000 C
0.000000 0.888890 0.000000 C
0.777777 0.444443 0.333333 C
0.555557 0.333333 0.333333 C
0.666667 0.222223 0.333333 C
0.444443 0.777777 0.666667 C
0.222223 0.666667 0.666667 C
0.333333 0.555557 0.666667 C
0.222220 0.111110 0.333333 C
0.888890 0.111110 0.333333 C
0.888890 0.777780 0.333333 C
0.111110 0.222220 0.666667 C
0.111110 0.888890 0.666667 C
0.777780 0.888890 0.666667 C
0.888887 0.444443 0.666667 C
0.555557 0.444443 0.666667 C
0.555557 0.111113 0.666667 C
0.777777 0.555553 0.000000 C
0.777777 0.222223 0.000000 C
0.444447 0.222223 0.000000 C
0.555553 0.777777 0.000000 C
0.222223 0.777777 0.000000 C
0.222223 0.444447 0.000000 C
0.444443 0.888887 0.333333 C
0.444443 0.555557 0.333333 C
0.111113 0.555557 0.333333 C
0.111110 0.222220 0.333333 C
0.777780 0.888890 0.333333 C
0.111110 0.888890 0.333333 C
0.222220 0.111110 0.666667 C
0.888890 0.777780 0.666667 C
0.888890 0.111110 0.666667 C
0.777777 0.555553 0.666667 C
0.444447 0.222223 0.666667 C
0.777777 0.222223 0.666667 C
0.888887 0.444443 0.000000 C
0.555557 0.111113 0.000000 C
0.555557 0.444443 0.000000 C
0.444443 0.888887 0.000000 C
0.111113 0.555557 0.000000 C
0.444443 0.555557 0.000000 C
0.555553 0.777777 0.333333 C
0.222223 0.444447 0.333333 C
0.222223 0.777777 0.333333 C
0.555560 0.111110 0.333333 C
0.888890 0.444450 0.333333 C
0.555550 0.444440 0.333333 C
0.111110 0.555560 0.666667 C
0.444450 0.888890 0.666667 C
0.444440 0.555550 0.666667 C
0.222227 0.444443 0.666667 C
0.555557 0.777783 0.666667 C
0.222217 0.777773 0.666667 C
0.777777 0.888893 0.000000 C
0.111117 0.222223 0.000000 C
0.111107 0.888883 0.000000 C
0.888893 0.777777 0.000000 C
0.222223 0.111117 0.000000 C
0.888883 0.111107 0.000000 C
0.444443 0.222227 0.333333 C
0.777783 0.555557 0.333333 C
0.777773 0.222217 0.333333 C
0.000000 0.222220 0.500000 C
0.777780 0.777780 0.500000 C
0.222220 0.000000 0.500000 C
0.666667 0.555553 0.833333 C
0.444447 0.111113 0.833333 C
0.888887 0.333333 0.833333 C
0.333333 0.888887 0.166667 C
0.111113 0.444447 0.166667 C
0.555553 0.666667 0.166667 C
0.222220 0.000000 0.166670 C
0.000000 0.222220 0.166670 C
0.777780 0.777780 0.166670 C
0.000000 0.222220 0.833330 C
0.222220 0.000000 0.833330 C
0.777780 0.777780 0.833330 C
0.888887 0.333333 0.500003 C
0.666667 0.555553 0.500003 C
0.444447 0.111113 0.500003 C
0.666667 0.555553 0.166663 C
0.888887 0.333333 0.166663 C
0.444447 0.111113 0.166663 C
0.555553 0.666667 0.833337 C
0.333333 0.888887 0.833337 C
0.111113 0.444447 0.833337 C
0.333333 0.888887 0.499997 C
0.555553 0.666667 0.499997 C
0.111113 0.444447 0.499997 C
0.333333 0.222220 0.500000 C
0.777780 0.111113 0.500000 C
0.888887 0.666667 0.500000 C
0.222220 0.333333 0.500000 C
0.111113 0.777780 0.500000 C
0.666667 0.888887 0.500000 C
0.000000 0.555553 0.833333 C
0.444447 0.444447 0.833333 C
0.555553 0.000000 0.833333 C
0.888887 0.666667 0.833333 C
0.777780 0.111113 0.833333 C
0.333333 0.222220 0.833333 C
0.666667 0.888887 0.166667 C
0.111113 0.777780 0.166667 C
0.222220 0.333333 0.166667 C
0.555553 0.000000 0.166667 C
0.444447 0.444447 0.166667 C
0.000000 0.555553 0.166667 C
0.666667 0.222220 0.500000 C
0.777780 0.444447 0.500000 C
0.555553 0.333333 0.500000 C
0.222220 0.666667 0.500000 C
0.444447 0.777780 0.500000 C
0.333333 0.555553 0.500000 C
0.333333 0.555553 0.833333 C
0.444447 0.777780 0.833333 C
0.222220 0.666667 0.833333 C
0.888887 0.000000 0.833333 C
0.111113 0.111113 0.833333 C
0.000000 0.888887 0.833333 C
0.000000 0.888887 0.166667 C
0.111113 0.111113 0.166667 C
0.888887 0.000000 0.166667 C
0.555553 0.333333 0.166667 C
0.777780 0.444447 0.166667 C
0.666667 0.222220 0.166667 C
0.000000 0.555560 0.500000 C
0.444440 0.444440 0.500000 C
0.555560 0.000000 0.500000 C
0.666667 0.888893 0.833333 C
0.111107 0.777773 0.833333 C
0.222227 0.333333 0.833333 C
0.333333 0.222227 0.166667 C
0.777773 0.111107 0.166667 C
0.888893 0.666667 0.166667 C
0.000000 0.888890 0.500000 C
0.111110 0.111110 0.500000 C
0.888890 0.000000 0.500000 C
0.666667 0.222223 0.833333 C
0.777777 0.444443 0.833333 C
0.555557 0.333333 0.833333 C
0.333333 0.555557 0.166667 C
0.444443 0.777777 0.166667 C
0.222223 0.666667 0.166667 C
0.222220 0.222220 0.500000 C
0.777780 0.000000 0.500000 C
0.000000 0.777780 0.500000 C
0.888887 0.555553 0.833333 C
0.444447 0.333333 0.833333 C
0.666667 0.111113 0.833333 C
0.555553 0.888887 0.166667 C
0.111113 0.666667 0.166667 C
0.333333 0.444447 0.166667 C
0.222220 0.222220 0.166670 C
0.777780 0.000000 0.166670 C
0.000000 0.777780 0.166670 C
0.222220 0.222220 0.833330 C
0.000000 0.777780 0.833330 C
0.777780 0.000000 0.833330 C
0.888887 0.555553 0.500003 C
0.444447 0.333333 0.500003 C
0.666667 0.111113 0.500003 C
0.888887 0.555553 0.166663 C
0.666667 0.111113 0.166663 C
0.444447 0.333333 0.166663 C
0.555553 0.888887 0.833337 C
0.111113 0.666667 0.833337 C
0.333333 0.444447 0.833337 C
0.555553 0.888887 0.499997 C
0.333333 0.444447 0.499997 C
0.111113 0.666667 0.499997 C
0.555550 0.222220 0.500000 C
0.777780 0.333330 0.500000 C
0.666670 0.444450 0.500000 C
0.222220 0.555550 0.500000 C
0.333330 0.777780 0.500000 C
0.444450 0.666670 0.500000 C
0.222217 0.555553 0.833333 C
0.444447 0.666663 0.833333 C
0.333337 0.777783 0.833333 C
0.888887 0.888883 0.833333 C
0.999997 0.111113 0.833333 C
0.111117 0.000003 0.833333 C
0.888883 0.888887 0.166667 C
0.111113 0.999997 0.166667 C
0.000003 0.111117 0.166667 C
0.555553 0.222217 0.166667 C
0.666663 0.444447 0.166667 C
0.777783 0.333337 0.166667 C
0.888880 0.222220 0.500000 C
0.777780 0.666660 0.500000 C
0.333340 0.111120 0.500000 C
0.222220 0.888880 0.500000 C
0.666660 0.777780 0.500000 C
0.111120 0.333340 0.500000 C
0.555547 0.555553 0.833333 C
0.444447 0.999993 0.833333 C
0.000007 0.444453 0.833333 C
0.888887 0.222213 0.833333 C
0.333327 0.111113 0.833333 C
0.777787 0.666673 0.833333 C
0.222213 0.888887 0.166667 C
0.111113 0.333327 0.166667 C
0.666673 0.777787 0.166667 C
0.555553 0.555547 0.166667 C
0.999993 0.444447 0.166667 C
0.444453 0.000007 0.166667 C
0.111120 0.000000 0.500000 C
0.000000 0.111120 0.500000 C
0.888880 0.888880 0.500000 C
0.777787 0.333333 0.833333 C
0.666667 0.444453 0.833333 C
0.555547 0.222213 0.833333 C
0.444453 0.666667 0.166667 C
0.333333 0.777787 0.166667 C
0.222213 0.555547 0.166667 C
0.555550 0.555550 0.500000 C
0.444450 0.000000 0.500000 C
0.000000 0.444450 0.500000 C
0.222217 0.888883 0.833333 C
0.111117 0.333333 0.833333 C
0.666667 0.777783 0.833333 C
0.888883 0.222217 0.166667 C
0.777783 0.666667 0.166667 C
0.333333 0.111117 0.166667 C
0.000000 0.000000 0.333333 C
0.000000 0.000000 0.666667 C
0.666667 0.333333 0.666667 C
0.666667 0.333333 0.000000 C
0.333333 0.666667 0.000000 C
0.333333 0.666667 0.333333 C
0.333333 0.000000 0.333333 C
0.000000 0.333333 0.333333 C
0.666667 0.666667 0.333333 C
0.000000 0.333333 0.666667 C
0.333333 0.000000 0.666667 C
0.666667 0.666667 0.666667 C
0.666667 0.666667 0.000000 C
0.000000 0.333333 0.000000 C
0.333333 0.000000 0.000000 C
0.666667 0.000000 0.333333 C
0.000000 0.666667 0.333333 C
0.333333 0.333333 0.333333 C
0.000000 0.666667 0.666667 C
0.666667 0.000000 0.666667 C
0.333333 0.333333 0.666667 C
0.666667 0.000000 0.000000 C
0.333333 0.333333 0.000000 C
0.000000 0.666667 0.000000 C
0.000000 0.000000 0.000000 C
0.666667 0.333333 0.333333 C
0.333333 0.666667 0.666667 C
