Li8 Co8 O16
1.0
9.214536 0.000000 -21.596365
0.000000 5.631200 0.000000
0.000000 0.000000 4.958756
Li Co O
   6  8  16
direct
0.250000 0.750000 0.250000 Li
0.750000 0.750000 0.750000 Li
0.750000 0.250000 0.750000 Li
0.250000 0.250000 0.250000 Li
0.000000 0.500000 0.000000 Li
0.000000 0.000000 0.000000 Li
0.500000 0.750000 0.000000 Co
0.500000 0.250000 0.000000 Co
0.000000 0.250000 0.500000 Co
0.000000 0.750000 0.500000 Co
0.750000 0.000000 0.250000 Co
0.250000 0.000000 0.750000 Co
0.250000 0.500000 0.750000 Co
0.750000 0.500000 0.250000 Co
0.369840 0.750000 0.130160 O
0.630160 0.750000 0.869840 O
0.630160 0.250000 0.869840 O
0.369840 0.250000 0.130160 O
0.869840 0.250000 0.630160 O
0.130160 0.250000 0.369840 O
0.130160 0.750000 0.369840 O
0.869840 0.750000 0.630160 O
0.619840 0.000000 0.380160 O
0.380160 0.000000 0.619840 O
0.119840 0.500000 0.880160 O
0.880160 0.500000 0.119840 O
0.619840 0.500000 0.380160 O
0.380160 0.500000 0.619840 O
0.119840 0.000000 0.880160 O
0.880160 0.000000 0.119840 O
