Li24 Co24 O48
1.0
2.815600 0.000000 0.000000
-1.407800 2.438381 0.000000
0.000000 0.000000 112.433601
Li Co O
   12  24  48
direct
0.000000 0.000000 0.750000 Li
0.000000 0.000000 0.250000 Li
0.666667 0.333333 0.083333 Li
0.666667 0.333333 0.583333 Li
0.333333 0.666667 0.416667 Li
0.333333 0.666667 0.916667 Li
0.000000 0.000000 0.875000 Li
0.000000 0.000000 0.125000 Li
0.666667 0.333333 0.208333 Li
0.666667 0.333333 0.458333 Li
0.333333 0.666667 0.541667 Li
0.333333 0.666667 0.791667 Li
0.000000 0.000000 0.687500 Co
0.000000 0.000000 0.312500 Co
0.666667 0.333333 0.020833 Co
0.666667 0.333333 0.645833 Co
0.333333 0.666667 0.354167 Co
0.333333 0.666667 0.979167 Co
0.000000 0.000000 0.562500 Co
0.000000 0.000000 0.437500 Co
0.666667 0.333333 0.895833 Co
0.666667 0.333333 0.770833 Co
0.333333 0.666667 0.229167 Co
0.333333 0.666667 0.104167 Co
0.333330 0.666670 0.729170 Co
0.666670 0.333330 0.270830 Co
0.999997 0.000003 0.062503 Co
0.333337 0.666663 0.604163 Co
0.666663 0.333337 0.395837 Co
0.000003 0.999997 0.937497 Co
0.000000 0.000000 0.812500 Co
0.000000 0.000000 0.187500 Co
0.666667 0.333333 0.145833 Co
0.666667 0.333333 0.520833 Co
0.333333 0.666667 0.479167 Co
0.333333 0.666667 0.854167 Co
0.000000 0.000000 0.654960 O
0.000000 0.000000 0.345040 O
0.666667 0.333333 0.988293 O
0.666667 0.333333 0.678373 O
0.333333 0.666667 0.321627 O
0.333333 0.666667 0.011707 O
0.000000 0.000000 0.595040 O
0.000000 0.000000 0.404960 O
0.666667 0.333333 0.928373 O
0.666667 0.333333 0.738293 O
0.333333 0.666667 0.261707 O
0.333333 0.666667 0.071627 O
0.333330 0.666670 0.696630 O
0.666670 0.333330 0.303370 O
0.999997 0.000003 0.029963 O
0.333337 0.666663 0.636703 O
0.666663 0.333337 0.363297 O
0.000003 0.999997 0.970037 O
0.000000 0.000000 0.779960 O
0.000000 0.000000 0.220040 O
0.666667 0.333333 0.113293 O
0.666667 0.333333 0.553373 O
0.333333 0.666667 0.446627 O
0.333333 0.666667 0.886707 O
0.000000 0.000000 0.904960 O
0.000000 0.000000 0.095040 O
0.666667 0.333333 0.238293 O
0.666667 0.333333 0.428373 O
0.333333 0.666667 0.571627 O
0.333333 0.666667 0.761707 O
0.000000 0.000000 0.154960 O
0.000000 0.000000 0.845040 O
0.666667 0.333333 0.488293 O
0.666667 0.333333 0.178373 O
0.333333 0.666667 0.821627 O
0.333333 0.666667 0.511707 O
0.000000 0.000000 0.279960 O
0.000000 0.000000 0.720040 O
0.666667 0.333333 0.613293 O
0.666667 0.333333 0.053373 O
0.333333 0.666667 0.946627 O
0.333333 0.666667 0.386707 O
0.000000 0.000000 0.529960 O
0.000000 0.000000 0.470040 O
0.666667 0.333333 0.863293 O
0.666667 0.333333 0.803373 O
0.333333 0.666667 0.196627 O
0.333333 0.666667 0.136707 O
