Li4 C24
1.0
4.323294 0.000000 0.000000
-2.161647 3.744082 0.000000
0.000000 0.000000 14.981471
Li C
   2  24
direct
0.000000 0.000000 0.625000 Li
0.000000 0.000000 0.375000 Li
0.000000 0.333550 0.750000 C
0.666450 0.666450 0.750000 C
0.333550 0.000000 0.750000 C
0.000000 0.666450 0.750000 C
0.333550 0.333550 0.750000 C
0.666450 0.000000 0.750000 C
0.333550 0.000000 0.500000 C
0.000000 0.333550 0.500000 C
0.666450 0.666450 0.500000 C
0.666450 0.000000 0.500000 C
0.000000 0.666450 0.500000 C
0.333550 0.333550 0.500000 C
0.000000 0.333550 0.000000 C
0.666450 0.666450 0.000000 C
0.333550 0.000000 0.000000 C
0.000000 0.666450 0.000000 C
0.333550 0.333550 0.000000 C
0.666450 0.000000 0.000000 C
0.000000 0.333550 0.250000 C
0.666450 0.666450 0.250000 C
0.333550 0.000000 0.250000 C
0.000000 0.666450 0.250000 C
0.333550 0.333550 0.250000 C
0.666450 0.000000 0.250000 C
