Li15 Co30 O60
1.0
2.780000 0.000000 0.000000
-1.390000 2.407551 0.000000
0.000000 0.000000 129.750000
Li Co O
   6  30  60
direct
0.333330 0.666670 0.666670 Li
0.999997 0.000003 0.000003 Li
0.666663 0.333337 0.333337 Li
0.000000 0.000000 0.800000 Li
0.666667 0.333333 0.133333 Li
0.333333 0.666667 0.466667 Li
0.000000 0.000000 0.684000 Co
0.666667 0.333333 0.017333 Co
0.333333 0.666667 0.350667 Co
0.000000 0.000000 0.516000 Co
0.666667 0.333333 0.849333 Co
0.333333 0.666667 0.182667 Co
0.333330 0.666670 0.750670 Co
0.999997 0.000003 0.084003 Co
0.666663 0.333337 0.417337 Co
0.333330 0.666670 0.582670 Co
0.999997 0.000003 0.916003 Co
0.666663 0.333337 0.249337 Co
0.666670 0.333330 0.817330 Co
0.333337 0.666663 0.150663 Co
0.000003 0.999997 0.483997 Co
0.666670 0.333330 0.649330 Co
0.333337 0.666663 0.982663 Co
0.000003 0.999997 0.315997 Co
0.000000 0.000000 0.884000 Co
0.666667 0.333333 0.217333 Co
0.333333 0.666667 0.550667 Co
0.000000 0.000000 0.284000 Co
0.666667 0.333333 0.617333 Co
0.333333 0.666667 0.950667 Co
0.000000 0.000000 0.716000 Co
0.666667 0.333333 0.049333 Co
0.333333 0.666667 0.382667 Co
0.333330 0.666670 0.782670 Co
0.999997 0.000003 0.116003 Co
0.666663 0.333337 0.449337 Co
0.000000 0.000000 0.658000 O
0.666667 0.333333 0.991333 O
0.333333 0.666667 0.324667 O
0.000000 0.000000 0.542000 O
0.666667 0.333333 0.875333 O
0.333333 0.666667 0.208667 O
0.333330 0.666670 0.724670 O
0.999997 0.000003 0.058003 O
0.666663 0.333337 0.391337 O
0.333330 0.666670 0.608670 O
0.999997 0.000003 0.942003 O
0.666663 0.333337 0.275337 O
0.666670 0.333330 0.791330 O
0.333337 0.666663 0.124663 O
0.000003 0.999997 0.457997 O
0.666670 0.333330 0.675330 O
0.333337 0.666663 0.008663 O
0.000003 0.999997 0.341997 O
0.000000 0.000000 0.858000 O
0.666667 0.333333 0.191333 O
0.333333 0.666667 0.524667 O
0.000000 0.000000 0.258000 O
0.666667 0.333333 0.591333 O
0.333333 0.666667 0.924667 O
0.000000 0.000000 0.742000 O
0.666667 0.333333 0.075333 O
0.333333 0.666667 0.408667 O
0.333330 0.666670 0.808670 O
0.999997 0.000003 0.142003 O
0.666663 0.333337 0.475337 O
0.000000 0.000000 0.624000 O
0.666667 0.333333 0.957333 O
0.333333 0.666667 0.290667 O
0.000000 0.000000 0.576000 O
0.666667 0.333333 0.909333 O
0.333333 0.666667 0.242667 O
0.333330 0.666670 0.690670 O
0.999997 0.000003 0.024003 O
0.666663 0.333337 0.357337 O
0.333330 0.666670 0.642670 O
0.999997 0.000003 0.976003 O
0.666663 0.333337 0.309337 O
0.666670 0.333330 0.757330 O
0.333337 0.666663 0.090663 O
0.000003 0.999997 0.423997 O
0.666670 0.333330 0.709330 O
0.333337 0.666663 0.042663 O
0.000003 0.999997 0.375997 O
0.000000 0.000000 0.824000 O
0.666667 0.333333 0.157333 O
0.333333 0.666667 0.490667 O
0.000000 0.000000 0.224000 O
0.666667 0.333333 0.557333 O
0.333333 0.666667 0.890667 O
0.000000 0.000000 0.776000 O
0.666667 0.333333 0.109333 O
0.333333 0.666667 0.442667 O
0.333330 0.666670 0.842670 O
0.999997 0.000003 0.176003 O
0.666663 0.333337 0.509337 O
