Li12 Co24 O48
1.0
2.780000 0.000000 0.000000
-1.390000 2.407551 0.000000
0.000000 0.000000 103.800003
Li Co O
   9  24  48
direct
0.000000 0.000000 0.000000 Li
0.666667 0.333333 0.333333 Li
0.333333 0.666667 0.666667 Li
0.666670 0.333330 0.083330 Li
0.333330 0.666670 0.916670 Li
0.333337 0.666663 0.416663 Li
0.999997 0.000003 0.250003 Li
0.000003 0.999997 0.749997 Li
0.666663 0.333337 0.583337 Li
0.000000 0.000000 0.105000 Co
0.000000 0.000000 0.895000 Co
0.666667 0.333333 0.438333 Co
0.666667 0.333333 0.228333 Co
0.333333 0.666667 0.771667 Co
0.333333 0.666667 0.561667 Co
0.666670 0.333330 0.188330 Co
0.333330 0.666670 0.811670 Co
0.333337 0.666663 0.521663 Co
0.999997 0.000003 0.145003 Co
0.000003 0.999997 0.854997 Co
0.666663 0.333337 0.478337 Co
0.666670 0.333330 0.978330 Co
0.333330 0.666670 0.021670 Co
0.333337 0.666663 0.311663 Co
0.999997 0.000003 0.355003 Co
0.000003 0.999997 0.644997 Co
0.666663 0.333337 0.688337 Co
0.333330 0.666670 0.271670 Co
0.666670 0.333330 0.728330 Co
0.999997 0.000003 0.605003 Co
0.333337 0.666663 0.061663 Co
0.666663 0.333337 0.938337 Co
0.000003 0.999997 0.394997 Co
0.000000 0.000000 0.072500 O
0.000000 0.000000 0.927500 O
0.666667 0.333333 0.405833 O
0.666667 0.333333 0.260833 O
0.333333 0.666667 0.739167 O
0.333333 0.666667 0.594167 O
0.666670 0.333330 0.155830 O
0.333330 0.666670 0.844170 O
0.333337 0.666663 0.489163 O
0.999997 0.000003 0.177503 O
0.000003 0.999997 0.822497 O
0.666663 0.333337 0.510837 O
0.666670 0.333330 0.010830 O
0.333330 0.666670 0.989170 O
0.333337 0.666663 0.344163 O
0.999997 0.000003 0.322503 O
0.000003 0.999997 0.677497 O
0.666663 0.333337 0.655837 O
0.333330 0.666670 0.239170 O
0.666670 0.333330 0.760830 O
0.999997 0.000003 0.572503 O
0.333337 0.666663 0.094163 O
0.666663 0.333337 0.905837 O
0.000003 0.999997 0.427497 O
0.000000 0.000000 0.030000 O
0.000000 0.000000 0.970000 O
0.666667 0.333333 0.363333 O
0.666667 0.333333 0.303333 O
0.333333 0.666667 0.696667 O
0.333333 0.666667 0.636667 O
0.666670 0.333330 0.113330 O
0.333330 0.666670 0.886670 O
0.333337 0.666663 0.446663 O
0.999997 0.000003 0.220003 O
0.000003 0.999997 0.779997 O
0.666663 0.333337 0.553337 O
0.666670 0.333330 0.053330 O
0.333330 0.666670 0.946670 O
0.333337 0.666663 0.386663 O
0.999997 0.000003 0.280003 O
0.000003 0.999997 0.719997 O
0.666663 0.333337 0.613337 O
0.333330 0.666670 0.196670 O
0.666670 0.333330 0.803330 O
0.999997 0.000003 0.530003 O
0.333337 0.666663 0.136663 O
0.666663 0.333337 0.863337 O
0.000003 0.999997 0.469997 O
