Li9 C54
1.0
4.323294 0.000000 0.000000
-2.161647 3.744082 0.000000
0.000000 0.000000 33.708309
Li C
   6  54
direct
0.000000 0.000000 0.777780 Li
0.000000 0.000000 0.111113 Li
0.000000 0.000000 0.444447 Li
0.000000 0.000000 0.555553 Li
0.000000 0.000000 0.222220 Li
0.000000 0.000000 0.888887 Li
0.000000 0.333550 0.722220 C
0.666450 0.666450 0.055553 C
0.333550 0.000000 0.388887 C
0.000000 0.666450 0.722220 C
0.333550 0.333550 0.055553 C
0.666450 0.000000 0.388887 C
0.333550 0.000000 0.611113 C
0.666450 0.666450 0.277780 C
0.000000 0.333550 0.944447 C
0.666450 0.000000 0.611113 C
0.333550 0.333550 0.277780 C
0.000000 0.666450 0.944447 C
0.666450 0.666450 0.722220 C
0.333550 0.000000 0.055553 C
0.000000 0.333550 0.388887 C
0.333550 0.333550 0.722220 C
0.666450 0.000000 0.055553 C
0.000000 0.666450 0.388887 C
0.666450 0.666450 0.611113 C
0.000000 0.333550 0.277780 C
0.333550 0.000000 0.944447 C
0.333550 0.333550 0.611113 C
0.000000 0.666450 0.277780 C
0.666450 0.000000 0.944447 C
0.333550 0.000000 0.722220 C
0.000000 0.333550 0.055553 C
0.666450 0.666450 0.388887 C
0.666450 0.000000 0.722220 C
0.000000 0.666450 0.055553 C
0.333550 0.333550 0.388887 C
0.000000 0.333550 0.611113 C
0.333550 0.000000 0.277780 C
0.666450 0.666450 0.944447 C
0.000000 0.666450 0.611113 C
0.666450 0.000000 0.277780 C
0.333550 0.333550 0.944447 C
0.000000 0.333550 0.833330 C
0.666450 0.666450 0.166663 C
0.333550 0.000000 0.499997 C
0.000000 0.666450 0.833330 C
0.333550 0.333550 0.166663 C
0.666450 0.000000 0.499997 C
0.000000 0.333550 0.166670 C
0.666450 0.666450 0.500003 C
0.333550 0.000000 0.833337 C
0.000000 0.666450 0.166670 C
0.333550 0.333550 0.500003 C
0.666450 0.000000 0.833337 C
0.333550 0.000000 0.166663 C
0.666450 0.666450 0.833330 C
0.000000 0.333550 0.499997 C
0.666450 0.000000 0.166663 C
0.333550 0.333550 0.833330 C
0.000000 0.666450 0.499997 C
