Li12 Co24 O48
1.0
5.560000 0.000000 0.000000
-2.780000 4.815101 0.000000
0.000000 0.000000 25.950001
Li Co O
   9  24  48
direct
0.166670 0.333330 0.333330 Li
0.666670 0.833340 0.333330 Li
0.166660 0.833330 0.333330 Li
0.833337 0.666663 0.666663 Li
0.333337 0.166673 0.666663 Li
0.833327 0.166663 0.666663 Li
0.500003 0.999997 0.999997 Li
0.000003 0.500007 0.999997 Li
0.499993 0.499997 0.999997 Li
0.000000 0.000000 0.420000 Co
0.666667 0.333333 0.753333 Co
0.333333 0.666667 0.086667 Co
0.000000 0.000000 0.580000 Co
0.666667 0.333333 0.913333 Co
0.333333 0.666667 0.246667 Co
0.166670 0.333330 0.753330 Co
0.666670 0.833340 0.753330 Co
0.166660 0.833330 0.753330 Co
0.833337 0.666663 0.086663 Co
0.333337 0.166673 0.086663 Co
0.833327 0.166663 0.086663 Co
0.500003 0.999997 0.419997 Co
0.000003 0.500007 0.419997 Co
0.499993 0.499997 0.419997 Co
0.166670 0.333330 0.913330 Co
0.666670 0.833340 0.913330 Co
0.166660 0.833330 0.913330 Co
0.833337 0.666663 0.246663 Co
0.333337 0.166673 0.246663 Co
0.833327 0.166663 0.246663 Co
0.500003 0.999997 0.579997 Co
0.000003 0.500007 0.579997 Co
0.499993 0.499997 0.579997 Co
0.000000 0.000000 0.290000 O
0.666667 0.333333 0.623333 O
0.333333 0.666667 0.956667 O
0.000000 0.000000 0.710000 O
0.666667 0.333333 0.043333 O
0.333333 0.666667 0.376667 O
0.166670 0.333330 0.623330 O
0.666670 0.833340 0.623330 O
0.166660 0.833330 0.623330 O
0.833337 0.666663 0.956663 O
0.333337 0.166673 0.956663 O
0.833327 0.166663 0.956663 O
0.500003 0.999997 0.289997 O
0.000003 0.500007 0.289997 O
0.499993 0.499997 0.289997 O
0.166670 0.333330 0.043330 O
0.666670 0.833340 0.043330 O
0.166660 0.833330 0.043330 O
0.833337 0.666663 0.376663 O
0.333337 0.166673 0.376663 O
0.833327 0.166663 0.376663 O
0.500003 0.999997 0.709997 O
0.000003 0.500007 0.709997 O
0.499993 0.499997 0.709997 O
0.000000 0.000000 0.120000 O
0.666667 0.333333 0.453333 O
0.333333 0.666667 0.786667 O
0.000000 0.000000 0.880000 O
0.666667 0.333333 0.213333 O
0.333333 0.666667 0.546667 O
0.166670 0.333330 0.453330 O
0.666670 0.833340 0.453330 O
0.166660 0.833330 0.453330 O
0.833337 0.666663 0.786663 O
0.333337 0.166673 0.786663 O
0.833327 0.166663 0.786663 O
0.500003 0.999997 0.119997 O
0.000003 0.500007 0.119997 O
0.499993 0.499997 0.119997 O
0.166670 0.333330 0.213330 O
0.666670 0.833340 0.213330 O
0.166660 0.833330 0.213330 O
0.833337 0.666663 0.546663 O
0.333337 0.166673 0.546663 O
0.833327 0.166663 0.546663 O
0.500003 0.999997 0.879997 O
0.000003 0.500007 0.879997 O
0.499993 0.499997 0.879997 O
