Li8 Co8 O16
1.0
4.607268 0.000000 -18.236317
0.000000 2.815600 0.000000
0.000000 0.000000 19.835024
Li Co O
   4  8  16
direct
0.000000 0.000000 0.875000 Li
0.000000 0.000000 0.125000 Li
0.500000 0.500000 0.125000 Li
0.500000 0.500000 0.875000 Li
0.500000 0.000000 0.000000 Co
0.500000 0.000000 0.750000 Co
0.500000 0.000000 0.250000 Co
0.000000 0.500000 0.250000 Co
0.000000 0.500000 0.750000 Co
0.000000 0.500000 0.000000 Co
0.500000 0.000000 0.500000 Co
0.000000 0.500000 0.500000 Co
0.239680 0.000000 0.934920 O
0.760320 0.000000 0.065080 O
0.760320 0.000000 0.815080 O
0.239680 0.000000 0.184920 O
0.739680 0.500000 0.184920 O
0.260320 0.500000 0.815080 O
0.260320 0.500000 0.065080 O
0.739680 0.500000 0.934920 O
0.239680 0.000000 0.434920 O
0.760320 0.000000 0.565080 O
0.760320 0.000000 0.315080 O
0.239680 0.000000 0.684920 O
0.739680 0.500000 0.434920 O
0.260320 0.500000 0.565080 O
0.260320 0.500000 0.315080 O
0.739680 0.500000 0.684920 O
