Li5 C30
1.0
4.323294 0.000000 0.000000
-2.161647 3.744082 0.000000
0.000000 0.000000 18.726839
Li C
   3  30
direct
0.000000 0.000000 0.400000 Li
0.000000 0.000000 0.600000 Li
0.000000 0.000000 0.200000 Li
0.000000 0.333550 0.500000 C
0.666450 0.666450 0.500000 C
0.333550 0.000000 0.500000 C
0.000000 0.666450 0.500000 C
0.333550 0.333550 0.500000 C
0.666450 0.000000 0.500000 C
0.333550 0.000000 0.300000 C
0.000000 0.333550 0.300000 C
0.666450 0.666450 0.300000 C
0.666450 0.000000 0.300000 C
0.000000 0.666450 0.300000 C
0.333550 0.333550 0.300000 C
0.000000 0.333550 0.700000 C
0.666450 0.666450 0.700000 C
0.333550 0.000000 0.700000 C
0.000000 0.666450 0.700000 C
0.333550 0.333550 0.700000 C
0.666450 0.000000 0.700000 C
0.000000 0.333550 0.900000 C
0.666450 0.666450 0.900000 C
0.333550 0.000000 0.900000 C
0.000000 0.666450 0.900000 C
0.333550 0.333550 0.900000 C
0.666450 0.000000 0.900000 C
0.000000 0.333550 0.100000 C
0.666450 0.666450 0.100000 C
0.333550 0.000000 0.100000 C
0.000000 0.666450 0.100000 C
0.333550 0.333550 0.100000 C
0.666450 0.000000 0.100000 C
