Li12 Co12 O24
1.0
1.626756 0.000000 -131.172515
0.000000 2.815600 0.000000
0.000000 0.000000 84.325203
Li Co O
   6  12  24
direct
0.000000 0.000000 0.333330 Li
0.000000 0.000000 0.666670 Li
0.500000 0.500000 0.333330 Li
0.500000 0.500000 0.666670 Li
0.000000 0.000000 0.000000 Li
0.500000 0.500000 0.000000 Li
0.000000 0.000000 0.416670 Co
0.000000 0.000000 0.583330 Co
0.500000 0.500000 0.416670 Co
0.500000 0.500000 0.583330 Co
0.000000 0.000000 0.250000 Co
0.000000 0.000000 0.750000 Co
0.500000 0.500000 0.250000 Co
0.500000 0.500000 0.750000 Co
0.500000 0.500000 0.083330 Co
0.500000 0.500000 0.916670 Co
0.000000 0.000000 0.083330 Co
0.000000 0.000000 0.916670 Co
0.000000 0.000000 0.373280 O
0.000000 0.000000 0.626720 O
0.500000 0.500000 0.373280 O
0.500000 0.500000 0.626720 O
0.000000 0.000000 0.293390 O
0.000000 0.000000 0.706610 O
0.500000 0.500000 0.293390 O
0.500000 0.500000 0.706610 O
0.500000 0.500000 0.206610 O
0.500000 0.500000 0.793390 O
0.000000 0.000000 0.206610 O
0.000000 0.000000 0.793390 O
0.500000 0.500000 0.126720 O
0.500000 0.500000 0.873280 O
0.000000 0.000000 0.126720 O
0.000000 0.000000 0.873280 O
0.000000 0.000000 0.039950 O
0.000000 0.000000 0.960050 O
0.500000 0.500000 0.039950 O
0.500000 0.500000 0.960050 O
0.000000 0.000000 0.539950 O
0.000000 0.000000 0.460050 O
0.500000 0.500000 0.539950 O
0.500000 0.500000 0.460050 O
