Li8 Co8 O16
1.0
1.625600 0.000000 -23.423665
0.000000 2.815600 0.000000
0.000000 0.000000 56.216801
Li Co O
   1  8  16
direct
0.500000 0.500000 0.500000 Li
0.000000 0.000000 0.750000 Co
0.000000 0.000000 0.250000 Co
0.000000 0.000000 0.500000 Co
0.000000 0.000000 0.000000 Co
0.500000 0.500000 0.125000 Co
0.500000 0.500000 0.875000 Co
0.500000 0.500000 0.375000 Co
0.500000 0.500000 0.625000 Co
0.000000 0.000000 0.684920 O
0.000000 0.000000 0.315080 O
0.000000 0.000000 0.565080 O
0.000000 0.000000 0.434920 O
0.000000 0.000000 0.184920 O
0.000000 0.000000 0.815080 O
0.000000 0.000000 0.065080 O
0.000000 0.000000 0.934920 O
0.500000 0.500000 0.059920 O
0.500000 0.500000 0.940080 O
0.500000 0.500000 0.309920 O
0.500000 0.500000 0.690080 O
0.500000 0.500000 0.559920 O
0.500000 0.500000 0.440080 O
0.500000 0.500000 0.809920 O
0.500000 0.500000 0.190080 O
