Li6 C36
1.0
4.323294 0.000000 0.000000
-2.161647 3.744082 0.000000
0.000000 0.000000 22.472206
Li C
6 36
direct
0.000000 0.000000 0.916670 Li
0.000000 0.000000 0.583337 Li
0.000000 0.000000 0.250003 Li
0.000000 0.000000 0.083330 Li
0.000000 0.000000 0.749997 Li
0.000000 0.000000 0.416663 Li
0.000000 0.333550 0.000000 C
0.666450 0.666450 0.666667 C
0.333550 0.000000 0.333333 C
0.000000 0.666450 0.000000 C
0.333550 0.333550 0.666667 C
0.666450 0.000000 0.333333 C
0.666450 0.666450 0.000000 C
0.333550 0.000000 0.666667 C
0.000000 0.333550 0.333333 C
0.333550 0.333550 0.000000 C
0.666450 0.000000 0.666667 C
0.000000 0.666450 0.333333 C
0.333550 0.000000 0.000000 C
0.000000 0.333550 0.666667 C
0.666450 0.666450 0.333333 C
0.666450 0.000000 0.000000 C
0.000000 0.666450 0.666667 C
0.333550 0.333550 0.333333 C
0.333550 0.000000 0.833330 C
0.000000 0.333550 0.499997 C
0.666450 0.666450 0.166663 C
0.666450 0.000000 0.833330 C
0.000000 0.666450 0.499997 C
0.333550 0.333550 0.166663 C
0.666450 0.666450 0.833330 C
0.333550 0.000000 0.499997 C
0.000000 0.333550 0.166663 C
0.333550 0.333550 0.833330 C
0.666450 0.000000 0.499997 C
0.000000 0.666450 0.166663 C
0.000000 0.333550 0.833330 C
0.666450 0.666450 0.499997 C
0.333550 0.000000 0.166663 C
0.000000 0.666450 0.833330 C
0.333550 0.333550 0.499997 C
0.666450 0.000000 0.166663 C
