Li2 C12
1.0
4.299500 0.000000 0.000000
-2.149750 3.723476 0.000000
0.000000 0.000000 7.200000
Li C
2 12
direct
0.333333 0.666667 0.763880 Li
0.666667 0.333333 0.236120 Li
0.333333 0.333333 0.000000 C
0.666667 0.000000 0.000000 C
0.000000 0.666667 0.000000 C
0.666667 0.333333 0.000000 C
0.333333 0.666667 0.000000 C
0.000000 0.666667 0.500000 C
0.333333 0.333333 0.500000 C
0.666667 0.000000 0.500000 C
0.666667 0.666667 0.500000 C
0.333333 0.000000 0.500000 C
0.000000 0.333333 0.500000 C
0.000000 0.000000 0.000000 C
