Li4 C24
1.0
4.299500 0.000000 0.000000
-2.149750 3.723476 0.000000
0.000000 0.000000 14.400000
Li C
4 24
direct
0.333333 0.666667 0.381940 Li
0.666667 0.333333 0.618060 Li
0.333333 0.666667 0.881940 Li
0.666667 0.333333 0.118060 Li
0.333333 0.333333 0.000000 C
0.666667 0.000000 0.000000 C
0.000000 0.666667 0.000000 C
0.333333 0.333333 0.500000 C
0.666667 0.000000 0.500000 C
0.000000 0.666667 0.500000 C
0.666667 0.333333 0.000000 C
0.333333 0.666667 0.000000 C
0.666667 0.333333 0.500000 C
0.333333 0.666667 0.500000 C
0.000000 0.666667 0.250000 C
0.333333 0.333333 0.250000 C
0.666667 0.000000 0.250000 C
0.666667 0.000000 0.750000 C
0.000000 0.666667 0.750000 C
0.333333 0.333333 0.750000 C
0.666667 0.666667 0.250000 C
0.333333 0.000000 0.250000 C
0.000000 0.333333 0.250000 C
0.666667 0.666667 0.750000 C
0.333333 0.000000 0.750000 C
0.000000 0.333333 0.750000 C
0.000000 0.000000 0.000000 C
0.000000 0.000000 0.500000 C
