Li6 C36
1.0
4.299500 0.000000 0.000000
-2.149750 3.723476 0.000000
0.000000 0.000000 21.599998
Li C
6 36
direct
0.333333 0.666667 0.254630 Li
0.333333 0.666667 0.921297 Li
0.333333 0.666667 0.587963 Li
0.666667 0.333333 0.745370 Li
0.666667 0.333333 0.412037 Li
0.666667 0.333333 0.078703 Li
0.333333 0.333333 0.000000 C
0.666667 0.000000 0.666667 C
0.000000 0.666667 0.333333 C
0.666667 0.000000 0.000000 C
0.000000 0.666667 0.666667 C
0.333333 0.333333 0.333333 C
0.000000 0.666667 0.000000 C
0.333333 0.333333 0.666667 C
0.666667 0.000000 0.333333 C
0.666667 0.333333 0.000000 C
0.666667 0.333333 0.666667 C
0.666667 0.333333 0.333333 C
0.333333 0.666667 0.000000 C
0.333333 0.666667 0.666667 C
0.333333 0.666667 0.333333 C
0.000000 0.666667 0.166670 C
0.333333 0.333333 0.833337 C
0.666667 0.000000 0.500003 C
0.333333 0.333333 0.166670 C
0.666667 0.000000 0.833337 C
0.000000 0.666667 0.500003 C
0.666667 0.000000 0.166670 C
0.000000 0.666667 0.833337 C
0.333333 0.333333 0.500003 C
0.666667 0.666667 0.166670 C
0.333333 0.000000 0.833337 C
0.000000 0.333333 0.500003 C
0.333333 0.000000 0.166670 C
0.000000 0.333333 0.833337 C
0.666667 0.666667 0.500003 C
0.000000 0.333333 0.166670 C
0.666667 0.666667 0.833337 C
0.333333 0.000000 0.500003 C
0.000000 0.000000 0.000000 C
0.000000 0.000000 0.666667 C
0.000000 0.000000 0.333333 C
