Li18 C108
1.0
7.446952 0.000000 0.000000
-3.723476 6.449250 0.000000
0.000000 0.000000 21.599998
Li C
18 108
direct
0.000000 0.333333 0.254630 Li
0.666667 0.666667 0.254630 Li
0.333333 0.000000 0.254630 Li
0.666667 0.666667 0.587963 Li
0.333333 0.000000 0.587963 Li
0.000000 0.333333 0.587963 Li
0.333333 0.000000 0.921297 Li
0.000000 0.333333 0.921297 Li
0.666667 0.666667 0.921297 Li
0.333333 0.333333 0.745370 Li
0.666667 0.000000 0.745370 Li
0.000000 0.666667 0.745370 Li
0.000000 0.666667 0.078703 Li
0.333333 0.333333 0.078703 Li
0.666667 0.000000 0.078703 Li
0.666667 0.000000 0.412037 Li
0.000000 0.666667 0.412037 Li
0.333333 0.333333 0.412037 Li
0.111120 0.222220 0.000000 C
0.777780 0.888900 0.000000 C
0.111100 0.888880 0.000000 C
0.777787 0.555553 0.333333 C
0.444447 0.222233 0.333333 C
0.777767 0.222213 0.333333 C
0.444453 0.888887 0.666667 C
0.111113 0.555567 0.666667 C
0.444433 0.555547 0.666667 C
0.777780 0.555560 0.000000 C
0.444440 0.222220 0.000000 C
0.777780 0.222220 0.000000 C
0.444447 0.888893 0.333333 C
0.111107 0.555553 0.333333 C
0.444447 0.555553 0.333333 C
0.111113 0.222227 0.666667 C
0.777773 0.888887 0.666667 C
0.111113 0.888887 0.666667 C
0.444450 0.888890 0.000000 C
0.111110 0.555560 0.000000 C
0.444440 0.555550 0.000000 C
0.111117 0.222223 0.333333 C
0.777777 0.888893 0.333333 C
0.111107 0.888883 0.333333 C
0.777783 0.555557 0.666667 C
0.444443 0.222227 0.666667 C
0.777773 0.222217 0.666667 C
0.333333 0.333333 0.000000 C
0.666667 0.000000 0.000000 C
0.000000 0.666667 0.000000 C
0.000000 0.666667 0.333333 C
0.333333 0.333333 0.333333 C
0.666667 0.000000 0.333333 C
0.666667 0.000000 0.666667 C
0.000000 0.666667 0.666667 C
0.333333 0.333333 0.666667 C
0.000000 0.333333 0.000000 C
0.666667 0.666667 0.000000 C
0.333333 0.000000 0.000000 C
0.666667 0.666667 0.333333 C
0.333333 0.000000 0.333333 C
0.000000 0.333333 0.333333 C
0.333333 0.000000 0.666667 C
0.000000 0.333333 0.666667 C
0.666667 0.666667 0.666667 C
0.777780 0.222220 0.166670 C
0.777780 0.555560 0.166670 C
0.444440 0.222220 0.166670 C
0.444447 0.555553 0.500003 C
0.444447 0.888893 0.500003 C
0.111107 0.555553 0.500003 C
0.111113 0.888887 0.833337 C
0.111113 0.222227 0.833337 C
0.777773 0.888887 0.833337 C
0.444440 0.222220 0.833330 C
0.777780 0.222220 0.833330 C
0.777780 0.555560 0.833330 C
0.111107 0.555553 0.166663 C
0.444447 0.555553 0.166663 C
0.444447 0.888893 0.166663 C
0.777773 0.888887 0.499997 C
0.111113 0.888887 0.499997 C
0.111113 0.222227 0.499997 C
0.111110 0.888890 0.166670 C
0.111110 0.222220 0.166670 C
0.777780 0.888890 0.166670 C
0.777777 0.222223 0.500003 C
0.777777 0.555553 0.500003 C
0.444447 0.222223 0.500003 C
0.444443 0.555557 0.833337 C
0.444443 0.888887 0.833337 C
0.111113 0.555557 0.833337 C
0.222220 0.444430 0.166670 C
0.555570 0.777790 0.166670 C
0.222210 0.777780 0.166670 C
0.888887 0.777763 0.500003 C
0.222237 0.111123 0.500003 C
0.888877 0.111113 0.500003 C
0.555553 0.111097 0.833337 C
0.888903 0.444457 0.833337 C
0.555543 0.444447 0.833337 C
0.222220 0.444430 0.833330 C
0.555570 0.777790 0.833330 C
0.222210 0.777780 0.833330 C
0.888887 0.777763 0.166663 C
0.222237 0.111123 0.166663 C
0.888877 0.111113 0.166663 C
0.555553 0.111097 0.499997 C
0.888903 0.444457 0.499997 C
0.555543 0.444447 0.499997 C
0.555550 0.111100 0.166670 C
0.888900 0.444450 0.166670 C
0.555550 0.444450 0.166670 C
0.222217 0.444433 0.500003 C
0.555567 0.777783 0.500003 C
0.222217 0.777783 0.500003 C
0.888883 0.777767 0.833337 C
0.222233 0.111117 0.833337 C
0.888883 0.111117 0.833337 C
0.000000 0.000000 0.000000 C
0.666667 0.333333 0.333333 C
0.333333 0.666667 0.666667 C
0.666667 0.333333 0.000000 C
0.333333 0.666667 0.333333 C
0.000000 0.000000 0.666667 C
0.333333 0.666667 0.000000 C
0.000000 0.000000 0.333333 C
0.666667 0.333333 0.666667 C
