Li24 Co24 O48
1.0
2.815600 0.000000 0.000000
-1.407800 2.438381 0.000000
0.000000 0.000000 112.433601
Li Co O
   12  24  48
direct
0.000000 0.000000 0.562500 Li
0.000000 0.000000 0.437500 Li
0.666667 0.333333 0.895833 Li
0.666667 0.333333 0.770833 Li
0.333333 0.666667 0.229167 Li
0.333333 0.666667 0.104167 Li
0.333330 0.666670 0.604170 Li
0.666670 0.333330 0.395830 Li
0.999997 0.000003 0.937503 Li
0.333337 0.666663 0.729163 Li
0.666663 0.333337 0.270837 Li
0.000003 0.999997 0.062497 Li
0.000000 0.000000 0.625000 Co
0.000000 0.000000 0.375000 Co
0.666667 0.333333 0.958333 Co
0.666667 0.333333 0.708333 Co
0.333333 0.666667 0.291667 Co
0.333333 0.666667 0.041667 Co
0.000000 0.000000 0.500000 Co
0.666667 0.333333 0.833333 Co
0.333333 0.666667 0.166667 Co
0.333330 0.666670 0.666670 Co
0.666670 0.333330 0.333330 Co
0.999997 0.000003 0.000003 Co
0.333330 0.666670 0.541670 Co
0.666670 0.333330 0.458330 Co
0.999997 0.000003 0.875003 Co
0.333337 0.666663 0.791663 Co
0.666663 0.333337 0.208337 Co
0.000003 0.999997 0.124997 Co
0.666670 0.333330 0.583330 Co
0.333330 0.666670 0.416670 Co
0.333337 0.666663 0.916663 Co
0.999997 0.000003 0.750003 Co
0.000003 0.999997 0.249997 Co
0.666663 0.333337 0.083337 Co
0.000000 0.000000 0.592460 O
0.000000 0.000000 0.407540 O
0.666667 0.333333 0.925793 O
0.666667 0.333333 0.740873 O
0.333333 0.666667 0.259127 O
0.333333 0.666667 0.074207 O
0.000000 0.000000 0.532540 O
0.000000 0.000000 0.467460 O
0.666667 0.333333 0.865873 O
0.666667 0.333333 0.800793 O
0.333333 0.666667 0.199207 O
0.333333 0.666667 0.134127 O
0.333330 0.666670 0.634130 O
0.666670 0.333330 0.365870 O
0.999997 0.000003 0.967463 O
0.333337 0.666663 0.699203 O
0.666663 0.333337 0.300797 O
0.000003 0.999997 0.032537 O
0.333330 0.666670 0.574210 O
0.666670 0.333330 0.425790 O
0.999997 0.000003 0.907543 O
0.333337 0.666663 0.759123 O
0.666663 0.333337 0.240877 O
0.000003 0.999997 0.092457 O
0.666670 0.333330 0.675790 O
0.333330 0.666670 0.324210 O
0.333337 0.666663 0.009123 O
0.999997 0.000003 0.657543 O
0.000003 0.999997 0.342457 O
0.666663 0.333337 0.990877 O
0.666670 0.333330 0.615870 O
0.333330 0.666670 0.384130 O
0.333337 0.666663 0.949203 O
0.999997 0.000003 0.717463 O
0.000003 0.999997 0.282537 O
0.666663 0.333337 0.050797 O
0.000000 0.000000 0.842460 O
0.000000 0.000000 0.157540 O
0.666667 0.333333 0.175793 O
0.666667 0.333333 0.490873 O
0.333333 0.666667 0.509127 O
0.333333 0.666667 0.824207 O
0.000000 0.000000 0.217460 O
0.000000 0.000000 0.782540 O
0.666667 0.333333 0.550793 O
0.666667 0.333333 0.115873 O
0.333333 0.666667 0.884127 O
0.333333 0.666667 0.449207 O
