Li12 Co12 O24
1.0
4.876761 0.000000 -28.108400
0.000000 2.815600 0.000000
0.000000 0.000000 28.108400
Li Co O
   8  12  24
direct
0.833330 0.500000 0.750000 Li
0.166670 0.500000 0.250000 Li
0.333330 0.000000 0.750000 Li
0.666670 0.000000 0.250000 Li
0.666670 0.000000 0.750000 Li
0.333330 0.000000 0.250000 Li
0.166670 0.500000 0.750000 Li
0.833330 0.500000 0.250000 Li
0.000000 0.000000 0.000000 Co
0.500000 0.500000 0.000000 Co
0.000000 0.000000 0.500000 Co
0.500000 0.500000 0.500000 Co
0.833330 0.500000 0.000000 Co
0.166670 0.500000 0.000000 Co
0.333330 0.000000 0.000000 Co
0.666670 0.000000 0.000000 Co
0.833330 0.500000 0.500000 Co
0.166670 0.500000 0.500000 Co
0.333330 0.000000 0.500000 Co
0.666670 0.000000 0.500000 Co
0.000000 0.000000 0.869840 O
0.000000 0.000000 0.130160 O
0.500000 0.500000 0.869840 O
0.500000 0.500000 0.130160 O
0.000000 0.000000 0.630160 O
0.000000 0.000000 0.369840 O
0.500000 0.500000 0.630160 O
0.500000 0.500000 0.369840 O
0.833330 0.500000 0.869840 O
0.166670 0.500000 0.130160 O
0.333330 0.000000 0.869840 O
0.666670 0.000000 0.130160 O
0.833330 0.500000 0.630160 O
0.166670 0.500000 0.369840 O
0.333330 0.000000 0.630160 O
0.666670 0.000000 0.369840 O
0.666670 0.000000 0.869840 O
0.333330 0.000000 0.130160 O
0.166670 0.500000 0.869840 O
0.833330 0.500000 0.130160 O
0.666670 0.000000 0.630160 O
0.333330 0.000000 0.369840 O
0.166670 0.500000 0.630160 O
0.833330 0.500000 0.369840 O
