Li8 C48
1.0
4.299500 0.000000 0.000000
-2.149750 3.723476 0.000000
0.000000 0.000000 28.799999
Li C
   4  48
direct
0.333333 0.666667 0.440970 Li
0.666667 0.333333 0.559030 Li
0.333333 0.666667 0.940970 Li
0.666667 0.333333 0.059030 Li
0.333333 0.333333 0.000000 C
0.666667 0.000000 0.000000 C
0.000000 0.666667 0.000000 C
0.333333 0.333333 0.250000 C
0.666667 0.000000 0.250000 C
0.000000 0.666667 0.250000 C
0.333333 0.333333 0.750000 C
0.000000 0.666667 0.750000 C
0.666667 0.000000 0.750000 C
0.333333 0.333333 0.500000 C
0.666667 0.000000 0.500000 C
0.000000 0.666667 0.500000 C
0.666667 0.333333 0.000000 C
0.333333 0.666667 0.000000 C
0.666667 0.333333 0.250000 C
0.333333 0.666667 0.750000 C
0.666667 0.333333 0.500000 C
0.333333 0.666667 0.500000 C
0.666667 0.333333 0.750000 C
0.333333 0.666667 0.250000 C
0.000000 0.666667 0.125000 C
0.333333 0.333333 0.125000 C
0.666667 0.000000 0.125000 C
0.666667 0.000000 0.875000 C
0.333333 0.333333 0.875000 C
0.000000 0.666667 0.875000 C
0.000000 0.666667 0.375000 C
0.333333 0.333333 0.375000 C
0.666667 0.000000 0.375000 C
0.666667 0.000000 0.625000 C
0.333333 0.333333 0.625000 C
0.000000 0.666667 0.625000 C
0.666667 0.666667 0.125000 C
0.333333 0.000000 0.125000 C
0.000000 0.333333 0.125000 C
0.666667 0.666667 0.875000 C
0.000000 0.333333 0.875000 C
0.333333 0.000000 0.875000 C
0.666667 0.666667 0.375000 C
0.333333 0.000000 0.375000 C
0.000000 0.333333 0.375000 C
0.666667 0.666667 0.625000 C
0.000000 0.333333 0.625000 C
0.333333 0.000000 0.625000 C
0.000000 0.000000 0.000000 C
0.000000 0.000000 0.250000 C
0.000000 0.000000 0.750000 C
0.000000 0.000000 0.500000 C
